In144 Cu440 As144 H32
1.0
10.493457 -0.000000 -0.000000
-3.497819 39.573303 -0.000000
0.000000 0.000000 82.964660
In Cu As H
144 440 144 32
direct
0.656250 0.968750 0.232361 In
0.281250 0.843750 0.232361 In
0.906250 0.718750 0.232361 In
0.531250 0.593750 0.232361 In
0.156250 0.468750 0.232361 In
0.781250 0.343750 0.232361 In
0.406250 0.218750 0.232361 In
0.031250 0.093750 0.232361 In
0.343750 0.031250 0.232361 In
0.968750 0.906250 0.232361 In
0.593750 0.781250 0.232361 In
0.218750 0.656250 0.232361 In
0.843750 0.531250 0.232361 In
0.468750 0.406250 0.232361 In
0.093750 0.281250 0.232361 In
0.718750 0.156250 0.232361 In
0.000000 0.000000 0.206543 In
0.625000 0.875000 0.206543 In
0.250000 0.750000 0.206543 In
0.875000 0.625000 0.206543 In
0.500000 0.500000 0.206543 In
0.125000 0.375000 0.206543 In
0.750000 0.250000 0.206543 In
0.375000 0.125000 0.206543 In
0.312500 0.937500 0.206543 In
0.937500 0.812500 0.206543 In
0.562500 0.687500 0.206543 In
0.187500 0.562500 0.206543 In
0.812500 0.437500 0.206543 In
0.437500 0.312500 0.206543 In
0.062500 0.187500 0.206543 In
0.687500 0.062500 0.206543 In
0.343750 0.031250 0.180725 In
0.968750 0.906250 0.180725 In
0.593750 0.781250 0.180725 In
0.218750 0.656250 0.180725 In
0.843750 0.531250 0.180725 In
0.468750 0.406250 0.180725 In
0.093750 0.281250 0.180725 In
0.718750 0.156250 0.180725 In
0.656250 0.968750 0.180725 In
0.281250 0.843750 0.180725 In
0.906250 0.718750 0.180725 In
0.531250 0.593750 0.180725 In
0.156250 0.468750 0.180725 In
0.781250 0.343750 0.180725 In
0.406250 0.218750 0.180725 In
0.031250 0.093750 0.180725 In
0.312500 0.937500 0.154907 In
0.937500 0.812500 0.154907 In
0.562500 0.687500 0.154907 In
0.187500 0.562500 0.154907 In
0.812500 0.437500 0.154907 In
0.437500 0.312500 0.154907 In
0.062500 0.187500 0.154907 In
0.687500 0.062500 0.154907 In
0.000000 0.000000 0.154907 In
0.625000 0.875000 0.154907 In
0.250000 0.750000 0.154907 In
0.875000 0.625000 0.154907 In
0.500000 0.500000 0.154907 In
0.125000 0.375000 0.154907 In
0.750000 0.250000 0.154907 In
0.375000 0.125000 0.154907 In
0.656250 0.968750 0.129089 In
0.281250 0.843750 0.129089 In
0.906250 0.718750 0.129089 In
0.531250 0.593750 0.129089 In
0.156250 0.468750 0.129089 In
0.781250 0.343750 0.129089 In
0.406250 0.218750 0.129089 In
0.031250 0.093750 0.129089 In
0.343750 0.031250 0.129089 In
0.968750 0.906250 0.129089 In
0.593750 0.781250 0.129089 In
0.218750 0.656250 0.129089 In
0.843750 0.531250 0.129089 In
0.468750 0.406250 0.129089 In
0.093750 0.281250 0.129089 In
0.718750 0.156250 0.129089 In
0.000000 0.000000 0.103271 In
0.625000 0.875000 0.103271 In
0.250000 0.750000 0.103271 In
0.875000 0.625000 0.103271 In
0.500000 0.500000 0.103271 In
0.125000 0.375000 0.103271 In
0.750000 0.250000 0.103271 In
0.375000 0.125000 0.103271 In
0.312500 0.937500 0.103271 In
0.937500 0.812500 0.103271 In
0.562500 0.687500 0.103271 In
0.187500 0.562500 0.103271 In
0.812500 0.437500 0.103271 In
0.437500 0.312500 0.103271 In
0.062500 0.187500 0.103271 In
0.687500 0.062500 0.103271 In
0.343750 0.031250 0.077454 In
0.968750 0.906250 0.077454 In
0.593750 0.781250 0.077454 In
0.218750 0.656250 0.077454 In
0.843750 0.531250 0.077454 In
0.468750 0.406250 0.077454 In
0.093750 0.281250 0.077454 In
0.718750 0.156250 0.077454 In
0.656250 0.968750 0.077454 In
0.281250 0.843750 0.077454 In
0.906250 0.718750 0.077454 In
0.531250 0.593750 0.077454 In
0.156250 0.468750 0.077454 In
0.781250 0.343750 0.077454 In
0.406250 0.218750 0.077454 In
0.031250 0.093750 0.077454 In
0.000000 0.000000 0.051636 In
0.625000 0.875000 0.051636 In
0.250000 0.750000 0.051636 In
0.875000 0.625000 0.051636 In
0.500000 0.500000 0.051636 In
0.125000 0.375000 0.051636 In
0.750000 0.250000 0.051636 In
0.375000 0.125000 0.051636 In
0.312500 0.937500 0.051636 In
0.937500 0.812500 0.051636 In
0.562500 0.687500 0.051636 In
0.187500 0.562500 0.051636 In
0.812500 0.437500 0.051636 In
0.437500 0.312500 0.051636 In
0.062500 0.187500 0.051636 In
0.687500 0.062500 0.051636 In
0.656250 0.968750 0.025818 In
0.281250 0.843750 0.025818 In
0.906250 0.718750 0.025818 In
0.531250 0.593750 0.025818 In
0.156250 0.468750 0.025818 In
0.781250 0.343750 0.025818 In
0.406250 0.218750 0.025818 In
0.031250 0.093750 0.025818 In
0.343750 0.031250 0.025818 In
0.968750 0.906250 0.025818 In
0.593750 0.781250 0.025818 In
0.218750 0.656250 0.025818 In
0.843750 0.531250 0.025818 In
0.468750 0.406250 0.025818 In
0.093750 0.281250 0.025818 In
0.718750 0.156250 0.025818 In
0.352273 0.954545 0.397334 Cu
0.852273 0.954545 0.397334 Cu
0.806818 0.863636 0.397334 Cu
0.306818 0.863636 0.397334 Cu
0.761364 0.772727 0.397334 Cu
0.261364 0.772727 0.397334 Cu
0.715909 0.681818 0.397334 Cu
0.215909 0.681818 0.397334 Cu
0.670455 0.590909 0.397334 Cu
0.170455 0.590909 0.397334 Cu
0.625000 0.500000 0.397334 Cu
0.125000 0.500000 0.397334 Cu
0.579545 0.409091 0.397334 Cu
0.079545 0.409091 0.397334 Cu
0.534091 0.318182 0.397334 Cu
0.034091 0.318182 0.397334 Cu
0.488636 0.227273 0.397334 Cu
0.988636 0.227273 0.397334 Cu
0.443182 0.136364 0.397334 Cu
0.943182 0.136364 0.397334 Cu
0.397727 0.045455 0.397334 Cu
0.897727 0.045455 0.397334 Cu
0.102273 0.954545 0.397334 Cu
0.602273 0.954545 0.397334 Cu
0.556818 0.863636 0.397334 Cu
0.056818 0.863636 0.397334 Cu
0.511364 0.772727 0.397334 Cu
0.011364 0.772727 0.397334 Cu
0.465909 0.681818 0.397334 Cu
0.965909 0.681818 0.397334 Cu
0.420455 0.590909 0.397334 Cu
0.920455 0.590909 0.397334 Cu
0.375000 0.500000 0.397334 Cu
0.875000 0.500000 0.397334 Cu
0.329545 0.409091 0.397334 Cu
0.829545 0.409091 0.397334 Cu
0.284091 0.318182 0.397334 Cu
0.784091 0.318182 0.397334 Cu
0.238636 0.227273 0.397334 Cu
0.738636 0.227273 0.397334 Cu
0.193182 0.136364 0.397334 Cu
0.693182 0.136364 0.397334 Cu
0.147727 0.045455 0.397334 Cu
0.647727 0.045455 0.397334 Cu
0.500000 0.000000 0.381950 Cu
1.000000 0.000000 0.381950 Cu
0.954545 0.909091 0.381950 Cu
0.454545 0.909091 0.381950 Cu
0.909091 0.818182 0.381950 Cu
0.409091 0.818182 0.381950 Cu
0.863636 0.727273 0.381950 Cu
0.363636 0.727273 0.381950 Cu
0.818182 0.636364 0.381950 Cu
0.318182 0.636364 0.381950 Cu
0.772727 0.545455 0.381950 Cu
0.272727 0.545455 0.381950 Cu
0.727273 0.454545 0.381950 Cu
0.227273 0.454545 0.381950 Cu
0.681818 0.363636 0.381950 Cu
0.181818 0.363636 0.381950 Cu
0.636364 0.272727 0.381950 Cu
0.136364 0.272727 0.381950 Cu
0.590909 0.181818 0.381950 Cu
0.090909 0.181818 0.381950 Cu
0.545455 0.090909 0.381950 Cu
0.045455 0.090909 0.381950 Cu
0.250000 0.000000 0.381950 Cu
0.750000 0.000000 0.381950 Cu
0.704545 0.909091 0.381950 Cu
0.204545 0.909091 0.381950 Cu
0.659091 0.818182 0.381950 Cu
0.159091 0.818182 0.381950 Cu
0.613636 0.727273 0.381950 Cu
0.113636 0.727273 0.381950 Cu
0.568182 0.636364 0.381950 Cu
0.068182 0.636364 0.381950 Cu
0.522727 0.545455 0.381950 Cu
0.022727 0.545455 0.381950 Cu
0.477273 0.454545 0.381950 Cu
0.977273 0.454545 0.381950 Cu
0.431818 0.363636 0.381950 Cu
0.931818 0.363636 0.381950 Cu
0.386364 0.272727 0.381950 Cu
0.886364 0.272727 0.381950 Cu
0.340909 0.181818 0.381950 Cu
0.840909 0.181818 0.381950 Cu
0.295455 0.090909 0.381950 Cu
0.795455 0.090909 0.381950 Cu
0.102273 0.954545 0.366566 Cu
0.602273 0.954545 0.366566 Cu
0.556818 0.863636 0.366566 Cu
0.056818 0.863636 0.366566 Cu
0.511364 0.772727 0.366566 Cu
0.011364 0.772727 0.366566 Cu
0.465909 0.681818 0.366566 Cu
0.965909 0.681818 0.366566 Cu
0.420455 0.590909 0.366566 Cu
0.920455 0.590909 0.366566 Cu
0.375000 0.500000 0.366566 Cu
0.875000 0.500000 0.366566 Cu
0.329545 0.409091 0.366566 Cu
0.829545 0.409091 0.366566 Cu
0.284091 0.318182 0.366566 Cu
0.784091 0.318182 0.366566 Cu
0.238636 0.227273 0.366566 Cu
0.738636 0.227273 0.366566 Cu
0.193182 0.136364 0.366566 Cu
0.693182 0.136364 0.366566 Cu
0.147727 0.045455 0.366566 Cu
0.647727 0.045455 0.366566 Cu
0.352273 0.954545 0.366566 Cu
0.852273 0.954545 0.366566 Cu
0.806818 0.863636 0.366566 Cu
0.306818 0.863636 0.366566 Cu
0.761364 0.772727 0.366566 Cu
0.261364 0.772727 0.366566 Cu
0.715909 0.681818 0.366566 Cu
0.215909 0.681818 0.366566 Cu
0.670455 0.590909 0.366566 Cu
0.170455 0.590909 0.366566 Cu
0.625000 0.500000 0.366566 Cu
0.125000 0.500000 0.366566 Cu
0.579545 0.409091 0.366566 Cu
0.079545 0.409091 0.366566 Cu
0.534091 0.318182 0.366566 Cu
0.034091 0.318182 0.366566 Cu
0.488636 0.227273 0.366566 Cu
0.988636 0.227273 0.366566 Cu
0.443182 0.136364 0.366566 Cu
0.943182 0.136364 0.366566 Cu
0.397727 0.045455 0.366566 Cu
0.897727 0.045455 0.366566 Cu
0.250000 0.000000 0.351182 Cu
0.750000 0.000000 0.351182 Cu
0.704545 0.909091 0.351182 Cu
0.204545 0.909091 0.351182 Cu
0.659091 0.818182 0.351182 Cu
0.159091 0.818182 0.351182 Cu
0.613636 0.727273 0.351182 Cu
0.113636 0.727273 0.351182 Cu
0.568182 0.636364 0.351182 Cu
0.068182 0.636364 0.351182 Cu
0.522727 0.545455 0.351182 Cu
0.022727 0.545455 0.351182 Cu
0.477273 0.454545 0.351182 Cu
0.977273 0.454545 0.351182 Cu
0.431818 0.363636 0.351182 Cu
0.931818 0.363636 0.351182 Cu
0.386364 0.272727 0.351182 Cu
0.886364 0.272727 0.351182 Cu
0.340909 0.181818 0.351182 Cu
0.840909 0.181818 0.351182 Cu
0.295455 0.090909 0.351182 Cu
0.795455 0.090909 0.351182 Cu
0.000000 0.000000 0.351182 Cu
0.500000 0.000000 0.351182 Cu
0.454545 0.909091 0.351182 Cu
0.954545 0.909091 0.351182 Cu
0.409091 0.818182 0.351182 Cu
0.909091 0.818182 0.351182 Cu
0.363636 0.727273 0.351182 Cu
0.863636 0.727273 0.351182 Cu
0.318182 0.636364 0.351182 Cu
0.818182 0.636364 0.351182 Cu
0.272727 0.545455 0.351182 Cu
0.772727 0.545455 0.351182 Cu
0.227273 0.454545 0.351182 Cu
0.727273 0.454545 0.351182 Cu
0.181818 0.363636 0.351182 Cu
0.681818 0.363636 0.351182 Cu
0.136364 0.272727 0.351182 Cu
0.636364 0.272727 0.351182 Cu
0.090909 0.181818 0.351182 Cu
0.590909 0.181818 0.351182 Cu
0.045455 0.090909 0.351182 Cu
0.545455 0.090909 0.351182 Cu
0.352273 0.954545 0.335798 Cu
0.852273 0.954545 0.335798 Cu
0.806818 0.863636 0.335798 Cu
0.306818 0.863636 0.335798 Cu
0.761364 0.772727 0.335798 Cu
0.261364 0.772727 0.335798 Cu
0.715909 0.681818 0.335798 Cu
0.215909 0.681818 0.335798 Cu
0.670455 0.590909 0.335798 Cu
0.170455 0.590909 0.335798 Cu
0.625000 0.500000 0.335798 Cu
0.125000 0.500000 0.335798 Cu
0.579545 0.409091 0.335798 Cu
0.079545 0.409091 0.335798 Cu
0.534091 0.318182 0.335798 Cu
0.034091 0.318182 0.335798 Cu
0.488636 0.227273 0.335798 Cu
0.988636 0.227273 0.335798 Cu
0.443182 0.136364 0.335798 Cu
0.943182 0.136364 0.335798 Cu
0.397727 0.045455 0.335798 Cu
0.897727 0.045455 0.335798 Cu
0.102273 0.954545 0.335798 Cu
0.602273 0.954545 0.335798 Cu
0.556818 0.863636 0.335798 Cu
0.056818 0.863636 0.335798 Cu
0.511364 0.772727 0.335798 Cu
0.011364 0.772727 0.335798 Cu
0.465909 0.681818 0.335798 Cu
0.965909 0.681818 0.335798 Cu
0.420455 0.590909 0.335798 Cu
0.920455 0.590909 0.335798 Cu
0.375000 0.500000 0.335798 Cu
0.875000 0.500000 0.335798 Cu
0.329545 0.409091 0.335798 Cu
0.829545 0.409091 0.335798 Cu
0.284091 0.318182 0.335798 Cu
0.784091 0.318182 0.335798 Cu
0.238636 0.227273 0.335798 Cu
0.738636 0.227273 0.335798 Cu
0.193182 0.136364 0.335798 Cu
0.693182 0.136364 0.335798 Cu
0.147727 0.045455 0.335798 Cu
0.647727 0.045455 0.335798 Cu
0.000000 0.000000 0.320414 Cu
0.500000 0.000000 0.320414 Cu
0.454545 0.909091 0.320414 Cu
0.954545 0.909091 0.320414 Cu
0.409091 0.818182 0.320414 Cu
0.909091 0.818182 0.320414 Cu
0.363636 0.727273 0.320414 Cu
0.863636 0.727273 0.320414 Cu
0.318182 0.636364 0.320414 Cu
0.818182 0.636364 0.320414 Cu
0.272727 0.545455 0.320414 Cu
0.772727 0.545455 0.320414 Cu
0.227273 0.454545 0.320414 Cu
0.727273 0.454545 0.320414 Cu
0.181818 0.363636 0.320414 Cu
0.681818 0.363636 0.320414 Cu
0.136364 0.272727 0.320414 Cu
0.636364 0.272727 0.320414 Cu
0.090909 0.181818 0.320414 Cu
0.590909 0.181818 0.320414 Cu
0.045455 0.090909 0.320414 Cu
0.545455 0.090909 0.320414 Cu
0.250000 0.000000 0.320414 Cu
0.750000 0.000000 0.320414 Cu
0.704545 0.909091 0.320414 Cu
0.204545 0.909091 0.320414 Cu
0.659091 0.818182 0.320414 Cu
0.159091 0.818182 0.320414 Cu
0.613636 0.727273 0.320414 Cu
0.113636 0.727273 0.320414 Cu
0.568182 0.636364 0.320414 Cu
0.068182 0.636364 0.320414 Cu
0.522727 0.545455 0.320414 Cu
0.022727 0.545455 0.320414 Cu
0.477273 0.454545 0.320414 Cu
0.977273 0.454545 0.320414 Cu
0.431818 0.363636 0.320414 Cu
0.931818 0.363636 0.320414 Cu
0.386364 0.272727 0.320414 Cu
0.886364 0.272727 0.320414 Cu
0.340909 0.181818 0.320414 Cu
0.840909 0.181818 0.320414 Cu
0.295455 0.090909 0.320414 Cu
0.795455 0.090909 0.320414 Cu
0.102273 0.954545 0.305030 Cu
0.602273 0.954545 0.305030 Cu
0.556818 0.863636 0.305030 Cu
0.056818 0.863636 0.305030 Cu
0.511364 0.772727 0.305030 Cu
0.011364 0.772727 0.305030 Cu
0.465909 0.681818 0.305030 Cu
0.965909 0.681818 0.305030 Cu
0.420455 0.590909 0.305030 Cu
0.920455 0.590909 0.305030 Cu
0.375000 0.500000 0.305030 Cu
0.875000 0.500000 0.305030 Cu
0.329545 0.409091 0.305030 Cu
0.829545 0.409091 0.305030 Cu
0.284091 0.318182 0.305030 Cu
0.784091 0.318182 0.305030 Cu
0.238636 0.227273 0.305030 Cu
0.738636 0.227273 0.305030 Cu
0.193182 0.136364 0.305030 Cu
0.693182 0.136364 0.305030 Cu
0.147727 0.045455 0.305030 Cu
0.647727 0.045455 0.305030 Cu
0.352273 0.954545 0.305030 Cu
0.852273 0.954545 0.305030 Cu
0.806818 0.863636 0.305030 Cu
0.306818 0.863636 0.305030 Cu
0.761364 0.772727 0.305030 Cu
0.261364 0.772727 0.305030 Cu
0.715909 0.681818 0.305030 Cu
0.215909 0.681818 0.305030 Cu
0.670455 0.590909 0.305030 Cu
0.170455 0.590909 0.305030 Cu
0.625000 0.500000 0.305030 Cu
0.125000 0.500000 0.305030 Cu
0.579545 0.409091 0.305030 Cu
0.079545 0.409091 0.305030 Cu
0.534091 0.318182 0.305030 Cu
0.034091 0.318182 0.305030 Cu
0.488636 0.227273 0.305030 Cu
0.988636 0.227273 0.305030 Cu
0.443182 0.136364 0.305030 Cu
0.943182 0.136364 0.305030 Cu
0.397727 0.045455 0.305030 Cu
0.897727 0.045455 0.305030 Cu
0.250000 0.000000 0.289646 Cu
0.750000 0.000000 0.289646 Cu
0.704545 0.909091 0.289646 Cu
0.204545 0.909091 0.289646 Cu
0.659091 0.818182 0.289646 Cu
0.159091 0.818182 0.289646 Cu
0.613636 0.727273 0.289646 Cu
0.113636 0.727273 0.289646 Cu
0.568182 0.636364 0.289646 Cu
0.068182 0.636364 0.289646 Cu
0.522727 0.545455 0.289646 Cu
0.022727 0.545455 0.289646 Cu
0.477273 0.454545 0.289646 Cu
0.977273 0.454545 0.289646 Cu
0.431818 0.363636 0.289646 Cu
0.931818 0.363636 0.289646 Cu
0.386364 0.272727 0.289646 Cu
0.886364 0.272727 0.289646 Cu
0.340909 0.181818 0.289646 Cu
0.840909 0.181818 0.289646 Cu
0.295455 0.090909 0.289646 Cu
0.795455 0.090909 0.289646 Cu
0.500000 0.000000 0.289646 Cu
0.000000 0.000000 0.289646 Cu
0.954545 0.909091 0.289646 Cu
0.454545 0.909091 0.289646 Cu
0.909091 0.818182 0.289646 Cu
0.409091 0.818182 0.289646 Cu
0.863636 0.727273 0.289646 Cu
0.363636 0.727273 0.289646 Cu
0.818182 0.636364 0.289646 Cu
0.318182 0.636364 0.289646 Cu
0.772727 0.545455 0.289646 Cu
0.272727 0.545455 0.289646 Cu
0.727273 0.454545 0.289646 Cu
0.227273 0.454545 0.289646 Cu
0.681818 0.363636 0.289646 Cu
0.181818 0.363636 0.289646 Cu
0.636364 0.272727 0.289646 Cu
0.136364 0.272727 0.289646 Cu
0.590909 0.181818 0.289646 Cu
0.090909 0.181818 0.289646 Cu
0.545455 0.090909 0.289646 Cu
0.045455 0.090909 0.289646 Cu
0.352273 0.954545 0.274262 Cu
0.852273 0.954545 0.274262 Cu
0.806818 0.863636 0.274262 Cu
0.306818 0.863636 0.274262 Cu
0.761364 0.772727 0.274262 Cu
0.261364 0.772727 0.274262 Cu
0.715909 0.681818 0.274262 Cu
0.215909 0.681818 0.274262 Cu
0.670455 0.590909 0.274262 Cu
0.170455 0.590909 0.274262 Cu
0.625000 0.500000 0.274262 Cu
0.125000 0.500000 0.274262 Cu
0.579545 0.409091 0.274262 Cu
0.079545 0.409091 0.274262 Cu
0.534091 0.318182 0.274262 Cu
0.034091 0.318182 0.274262 Cu
0.488636 0.227273 0.274262 Cu
0.988636 0.227273 0.274262 Cu
0.443182 0.136364 0.274262 Cu
0.943182 0.136364 0.274262 Cu
0.397727 0.045455 0.274262 Cu
0.897727 0.045455 0.274262 Cu
0.102273 0.954545 0.274262 Cu
0.602273 0.954545 0.274262 Cu
0.556818 0.863636 0.274262 Cu
0.056818 0.863636 0.274262 Cu
0.511364 0.772727 0.274262 Cu
0.011364 0.772727 0.274262 Cu
0.465909 0.681818 0.274262 Cu
0.965909 0.681818 0.274262 Cu
0.420455 0.590909 0.274262 Cu
0.920455 0.590909 0.274262 Cu
0.375000 0.500000 0.274262 Cu
0.875000 0.500000 0.274262 Cu
0.329545 0.409091 0.274262 Cu
0.829545 0.409091 0.274262 Cu
0.284091 0.318182 0.274262 Cu
0.784091 0.318182 0.274262 Cu
0.238636 0.227273 0.274262 Cu
0.738636 0.227273 0.274262 Cu
0.193182 0.136364 0.274262 Cu
0.693182 0.136364 0.274262 Cu
0.147727 0.045455 0.274262 Cu
0.647727 0.045455 0.274262 Cu
0.000000 0.000000 0.258878 Cu
0.500000 0.000000 0.258878 Cu
0.454545 0.909091 0.258878 Cu
0.954545 0.909091 0.258878 Cu
0.409091 0.818182 0.258878 Cu
0.909091 0.818182 0.258878 Cu
0.363636 0.727273 0.258878 Cu
0.863636 0.727273 0.258878 Cu
0.318182 0.636364 0.258878 Cu
0.818182 0.636364 0.258878 Cu
0.272727 0.545455 0.258878 Cu
0.772727 0.545455 0.258878 Cu
0.227273 0.454545 0.258878 Cu
0.727273 0.454545 0.258878 Cu
0.181818 0.363636 0.258878 Cu
0.681818 0.363636 0.258878 Cu
0.136364 0.272727 0.258878 Cu
0.636364 0.272727 0.258878 Cu
0.090909 0.181818 0.258878 Cu
0.590909 0.181818 0.258878 Cu
0.045455 0.090909 0.258878 Cu
0.545455 0.090909 0.258878 Cu
0.250000 0.000000 0.258878 Cu
0.750000 0.000000 0.258878 Cu
0.704545 0.909091 0.258878 Cu
0.204545 0.909091 0.258878 Cu
0.659091 0.818182 0.258878 Cu
0.159091 0.818182 0.258878 Cu
0.613636 0.727273 0.258878 Cu
0.113636 0.727273 0.258878 Cu
0.568182 0.636364 0.258878 Cu
0.068182 0.636364 0.258878 Cu
0.522727 0.545455 0.258878 Cu
0.022727 0.545455 0.258878 Cu
0.477273 0.454545 0.258878 Cu
0.977273 0.454545 0.258878 Cu
0.431818 0.363636 0.258878 Cu
0.931818 0.363636 0.258878 Cu
0.386364 0.272727 0.258878 Cu
0.886364 0.272727 0.258878 Cu
0.340909 0.181818 0.258878 Cu
0.840909 0.181818 0.258878 Cu
0.295455 0.090909 0.258878 Cu
0.795455 0.090909 0.258878 Cu
0.281250 0.093750 0.232361 As
0.906250 0.968750 0.232361 As
0.531250 0.843750 0.232361 As
0.156250 0.718750 0.232361 As
0.781250 0.593750 0.232361 As
0.406250 0.468750 0.232361 As
0.031250 0.343750 0.232361 As
0.656250 0.218750 0.232361 As
0.593750 0.031250 0.232361 As
0.218750 0.906250 0.232361 As
0.843750 0.781250 0.232361 As
0.468750 0.656250 0.232361 As
0.093750 0.531250 0.232361 As
0.718750 0.406250 0.232361 As
0.343750 0.281250 0.232361 As
0.968750 0.156250 0.232361 As
0.250000 0.000000 0.206543 As
0.875000 0.875000 0.206543 As
0.500000 0.750000 0.206543 As
0.125000 0.625000 0.206543 As
0.750000 0.500000 0.206543 As
0.375000 0.375000 0.206543 As
1.000000 0.250000 0.206543 As
0.625000 0.125000 0.206543 As
0.562500 0.937500 0.206543 As
0.187500 0.812500 0.206543 As
0.812500 0.687500 0.206543 As
0.437500 0.562500 0.206543 As
0.062500 0.437500 0.206543 As
0.687500 0.312500 0.206543 As
0.312500 0.187500 0.206543 As
0.937500 0.062500 0.206543 As
0.593750 0.031250 0.180725 As
0.218750 0.906250 0.180725 As
0.843750 0.781250 0.180725 As
0.468750 0.656250 0.180725 As
0.093750 0.531250 0.180725 As
0.718750 0.406250 0.180725 As
0.343750 0.281250 0.180725 As
0.968750 0.156250 0.180725 As
0.281250 0.093750 0.180725 As
0.906250 0.968750 0.180725 As
0.531250 0.843750 0.180725 As
0.156250 0.718750 0.180725 As
0.781250 0.593750 0.180725 As
0.406250 0.468750 0.180725 As
0.031250 0.343750 0.180725 As
0.656250 0.218750 0.180725 As
0.562500 0.937500 0.154907 As
0.187500 0.812500 0.154907 As
0.812500 0.687500 0.154907 As
0.437500 0.562500 0.154907 As
0.062500 0.437500 0.154907 As
0.687500 0.312500 0.154907 As
0.312500 0.187500 0.154907 As
0.937500 0.062500 0.154907 As
0.250000 0.000000 0.154907 As
0.875000 0.875000 0.154907 As
0.500000 0.750000 0.154907 As
0.125000 0.625000 0.154907 As
0.750000 0.500000 0.154907 As
0.375000 0.375000 0.154907 As
1.000000 0.250000 0.154907 As
0.625000 0.125000 0.154907 As
0.281250 0.093750 0.129089 As
0.906250 0.968750 0.129089 As
0.531250 0.843750 0.129089 As
0.156250 0.718750 0.129089 As
0.781250 0.593750 0.129089 As
0.406250 0.468750 0.129089 As
0.031250 0.343750 0.129089 As
0.656250 0.218750 0.129089 As
0.593750 0.031250 0.129089 As
0.218750 0.906250 0.129089 As
0.843750 0.781250 0.129089 As
0.468750 0.656250 0.129089 As
0.093750 0.531250 0.129089 As
0.718750 0.406250 0.129089 As
0.343750 0.281250 0.129089 As
0.968750 0.156250 0.129089 As
0.250000 0.000000 0.103271 As
0.875000 0.875000 0.103271 As
0.500000 0.750000 0.103271 As
0.125000 0.625000 0.103271 As
0.750000 0.500000 0.103271 As
0.375000 0.375000 0.103271 As
1.000000 0.250000 0.103271 As
0.625000 0.125000 0.103271 As
0.562500 0.937500 0.103271 As
0.187500 0.812500 0.103271 As
0.812500 0.687500 0.103271 As
0.437500 0.562500 0.103271 As
0.062500 0.437500 0.103271 As
0.687500 0.312500 0.103271 As
0.312500 0.187500 0.103271 As
0.937500 0.062500 0.103271 As
0.593750 0.031250 0.077454 As
0.218750 0.906250 0.077454 As
0.843750 0.781250 0.077454 As
0.468750 0.656250 0.077454 As
0.093750 0.531250 0.077454 As
0.718750 0.406250 0.077454 As
0.343750 0.281250 0.077454 As
0.968750 0.156250 0.077454 As
0.281250 0.093750 0.077454 As
0.906250 0.968750 0.077454 As
0.531250 0.843750 0.077454 As
0.156250 0.718750 0.077454 As
0.781250 0.593750 0.077454 As
0.406250 0.468750 0.077454 As
0.031250 0.343750 0.077454 As
0.656250 0.218750 0.077454 As
0.562500 0.937500 0.051636 As
0.187500 0.812500 0.051636 As
0.812500 0.687500 0.051636 As
0.437500 0.562500 0.051636 As
0.062500 0.437500 0.051636 As
0.687500 0.312500 0.051636 As
0.312500 0.187500 0.051636 As
0.937500 0.062500 0.051636 As
0.250000 0.000000 0.051636 As
0.875000 0.875000 0.051636 As
0.500000 0.750000 0.051636 As
0.125000 0.625000 0.051636 As
0.750000 0.500000 0.051636 As
0.375000 0.375000 0.051636 As
1.000000 0.250000 0.051636 As
0.625000 0.125000 0.051636 As
0.593750 0.031250 0.025818 As
0.218750 0.906250 0.025818 As
0.843750 0.781250 0.025818 As
0.468750 0.656250 0.025818 As
0.093750 0.531250 0.025818 As
0.718750 0.406250 0.025818 As
0.343750 0.281250 0.025818 As
0.968750 0.156250 0.025818 As
0.281250 0.093750 0.025818 As
0.906250 0.968750 0.025818 As
0.531250 0.843750 0.025818 As
0.156250 0.718750 0.025818 As
0.781250 0.593750 0.025818 As
0.406250 0.468750 0.025818 As
0.031250 0.343750 0.025818 As
0.656250 0.218750 0.025818 As
0.641994 0.047331 0.012532 H
0.266994 0.922331 0.012532 H
0.891994 0.797331 0.012532 H
0.516994 0.672331 0.012532 H
0.141994 0.547331 0.012532 H
0.766994 0.422331 0.012532 H
0.391994 0.297331 0.012532 H
0.016994 0.172331 0.012532 H
0.329494 0.109831 0.012532 H
0.954494 0.984831 0.012532 H
0.579494 0.859831 0.012532 H
0.204494 0.734831 0.012532 H
0.829494 0.609831 0.012532 H
0.454494 0.484831 0.012532 H
0.079494 0.359831 0.012532 H
0.704494 0.234831 0.012532 H
0.600608 0.950203 0.010495 H
0.225608 0.825203 0.010495 H
0.850608 0.700203 0.010495 H
0.475608 0.575203 0.010495 H
0.100608 0.450203 0.010495 H
0.725608 0.325203 0.010495 H
0.350608 0.200203 0.010495 H
0.975608 0.075203 0.010495 H
0.288108 0.012703 0.010495 H
0.913108 0.887703 0.010495 H
0.538108 0.762703 0.010495 H
0.163108 0.637703 0.010495 H
0.788108 0.512703 0.010495 H
0.413108 0.387703 0.010495 H
0.038108 0.262703 0.010495 H
0.663108 0.137703 0.010495 H
