Al120 In42 As42
1.0
0.000000 19.631460 0.000000
11.334229 -0.000000 -0.000000
-0.000000 -0.000000 -47.209979
Al In As
120 42 42
direct
0.000000 -0.000000 0.213304 Al
0.000000 0.500000 0.213304 Al
0.200000 0.500000 0.213304 Al
0.200000 1.000000 0.213304 Al
0.400000 0.500000 0.213304 Al
0.400000 1.000000 0.213304 Al
0.600000 1.000000 0.213304 Al
0.600000 0.500000 0.213304 Al
0.800000 0.000000 0.213304 Al
0.800000 0.500000 0.213304 Al
0.100000 0.625000 0.243552 Al
0.100000 0.125000 0.243552 Al
0.300000 0.125000 0.243552 Al
0.300000 0.625000 0.243552 Al
0.500000 0.125000 0.243552 Al
0.500000 0.625000 0.243552 Al
0.700000 0.625000 0.243552 Al
0.700000 0.125000 0.243552 Al
0.900000 0.625000 0.243552 Al
0.900000 0.125000 0.243552 Al
0.100000 0.875000 0.243552 Al
0.100000 0.375000 0.243552 Al
0.300000 0.375000 0.243552 Al
0.300000 0.875000 0.243552 Al
0.500000 0.375000 0.243552 Al
0.500000 0.875000 0.243552 Al
0.700000 0.875000 0.243552 Al
0.700000 0.375000 0.243552 Al
0.900000 0.875000 0.243552 Al
0.900000 0.375000 0.243552 Al
0.000000 0.750000 0.213304 Al
0.000000 0.250000 0.213304 Al
0.200000 0.250000 0.213304 Al
0.200000 0.750000 0.213304 Al
0.400000 0.250000 0.213304 Al
0.400000 0.750000 0.213304 Al
0.600000 0.750000 0.213304 Al
0.600000 0.250000 0.213304 Al
0.800000 0.750000 0.213304 Al
0.800000 0.250000 0.213304 Al
0.000000 0.750000 0.273799 Al
0.000000 0.250000 0.273799 Al
0.200000 0.250000 0.273799 Al
0.200000 0.750000 0.273799 Al
0.400000 0.250000 0.273799 Al
0.400000 0.750000 0.273799 Al
0.600000 0.750000 0.273799 Al
0.600000 0.250000 0.273799 Al
0.800000 0.750000 0.273799 Al
0.800000 0.250000 0.273799 Al
0.100000 0.875000 0.304046 Al
0.100000 0.375000 0.304046 Al
0.300000 0.375000 0.304046 Al
0.300000 0.875000 0.304046 Al
0.500000 0.375000 0.304046 Al
0.500000 0.875000 0.304046 Al
0.700000 0.875000 0.304046 Al
0.700000 0.375000 0.304046 Al
0.900000 0.875000 0.304046 Al
0.900000 0.375000 0.304046 Al
0.100000 0.625000 0.304046 Al
0.100000 0.125000 0.304046 Al
0.300000 0.125000 0.304046 Al
0.300000 0.625000 0.304046 Al
0.500000 0.125000 0.304046 Al
0.500000 0.625000 0.304046 Al
0.700000 0.625000 0.304046 Al
0.700000 0.125000 0.304046 Al
0.900000 0.625000 0.304046 Al
0.900000 0.125000 0.304046 Al
0.000000 -0.000000 0.273799 Al
0.000000 0.500000 0.273799 Al
0.200000 0.500000 0.273799 Al
0.200000 1.000000 0.273799 Al
0.400000 0.500000 0.273799 Al
0.400000 1.000000 0.273799 Al
0.600000 1.000000 0.273799 Al
0.600000 0.500000 0.273799 Al
0.800000 0.000000 0.273799 Al
0.800000 0.500000 0.273799 Al
0.000000 -0.000000 0.334294 Al
0.000000 0.500000 0.334294 Al
0.200000 0.500000 0.334294 Al
0.200000 1.000000 0.334294 Al
0.400000 0.500000 0.334294 Al
0.400000 1.000000 0.334294 Al
0.600000 1.000000 0.334294 Al
0.600000 0.500000 0.334294 Al
0.800000 0.000000 0.334294 Al
0.800000 0.500000 0.334294 Al
0.100000 0.625000 0.364541 Al
0.100000 0.125000 0.364541 Al
0.300000 0.125000 0.364541 Al
0.300000 0.625000 0.364541 Al
0.500000 0.125000 0.364541 Al
0.500000 0.625000 0.364541 Al
0.700000 0.625000 0.364541 Al
0.700000 0.125000 0.364541 Al
0.900000 0.625000 0.364541 Al
0.900000 0.125000 0.364541 Al
0.100000 0.875000 0.364541 Al
0.100000 0.375000 0.364541 Al
0.300000 0.375000 0.364541 Al
0.300000 0.875000 0.364541 Al
0.500000 0.375000 0.364541 Al
0.500000 0.875000 0.364541 Al
0.700000 0.875000 0.364541 Al
0.700000 0.375000 0.364541 Al
0.900000 0.875000 0.364541 Al
0.900000 0.375000 0.364541 Al
0.000000 0.750000 0.334294 Al
0.000000 0.250000 0.334294 Al
0.200000 0.250000 0.334294 Al
0.200000 0.750000 0.334294 Al
0.400000 0.250000 0.334294 Al
0.400000 0.750000 0.334294 Al
0.600000 0.750000 0.334294 Al
0.600000 0.250000 0.334294 Al
0.800000 0.750000 0.334294 Al
0.800000 0.250000 0.334294 Al
0.714286 0.428571 0.018523 In
0.857143 0.714286 0.018523 In
0.000000 0.000000 0.018523 In
0.142857 0.285714 0.018523 In
0.285714 0.571429 0.018523 In
0.428571 0.857143 0.018523 In
0.571429 0.142857 0.018523 In
0.785714 0.071429 0.018523 In
0.928571 0.357143 0.018523 In
0.071429 0.642857 0.018523 In
0.214286 0.928571 0.018523 In
0.357143 0.214286 0.018523 In
0.500000 0.500000 0.018523 In
0.642857 0.785714 0.018523 In
0.952381 0.571429 0.092613 In
0.095238 0.857143 0.092613 In
0.238095 0.142857 0.092613 In
0.380952 0.428571 0.092613 In
0.523810 0.714286 0.092613 In
0.666667 0.000000 0.092613 In
0.809524 0.285714 0.092613 In
0.023810 0.214286 0.092613 In
0.166667 0.500000 0.092613 In
0.309524 0.785714 0.092613 In
0.452381 0.071429 0.092613 In
0.595238 0.357143 0.092613 In
0.738095 0.642857 0.092613 In
0.880952 0.928571 0.092613 In
0.904762 0.142857 0.166704 In
0.047619 0.428571 0.166704 In
0.190476 0.714286 0.166704 In
0.333333 1.000000 0.166704 In
0.476190 0.285714 0.166704 In
0.619048 0.571429 0.166704 In
0.761905 0.857143 0.166704 In
0.833333 0.500000 0.166704 In
0.976190 0.785714 0.166704 In
0.119048 0.071429 0.166704 In
0.261905 0.357143 0.166704 In
0.404762 0.642857 0.166704 In
0.547619 0.928571 0.166704 In
0.690476 0.214286 0.166704 In
0.904762 0.142857 1.000000 As
0.047619 0.428571 1.000000 As
0.190476 0.714286 1.000000 As
0.333333 0.000000 1.000000 As
0.476190 0.285714 1.000000 As
0.619048 0.571429 1.000000 As
0.761905 0.857143 1.000000 As
0.833333 0.500000 1.000000 As
0.976190 0.785714 1.000000 As
0.119048 0.071429 1.000000 As
0.261905 0.357143 1.000000 As
0.404762 0.642857 1.000000 As
0.547619 0.928571 1.000000 As
0.690476 0.214286 1.000000 As
0.000000 0.000000 0.074091 As
0.142857 0.285714 0.074091 As
0.285714 0.571429 0.074091 As
0.428571 0.857143 0.074091 As
0.571429 0.142857 0.074091 As
0.714286 0.428571 0.074091 As
0.857143 0.714286 0.074091 As
0.785714 0.071429 0.074091 As
0.928571 0.357143 0.074091 As
0.071429 0.642857 0.074091 As
0.214286 0.928571 0.074091 As
0.357143 0.214286 0.074091 As
0.500000 0.500000 0.074091 As
0.642857 0.785714 0.074091 As
0.952381 0.571429 0.148181 As
0.095238 0.857143 0.148181 As
0.238095 0.142857 0.148181 As
0.380952 0.428571 0.148181 As
0.523810 0.714286 0.148181 As
0.666667 0.000000 0.148181 As
0.809524 0.285714 0.148181 As
0.023810 0.214286 0.148181 As
0.166667 0.500000 0.148181 As
0.309524 0.785714 0.148181 As
0.452381 0.071429 0.148181 As
0.595238 0.357143 0.148181 As
0.738095 0.642857 0.148181 As
0.880952 0.928571 0.148181 As
