Al162 In60 As60
1.0
-4.283936 37.099972 0.000000
8.567871 -0.000000 -0.000000
-0.000000 -0.000000 -47.209979
Al In As
162 60 60
direct
1.000000 -0.000000 0.213304 Al
0.000000 0.666667 0.213304 Al
0.000000 0.333333 0.213304 Al
0.888889 0.592593 0.213304 Al
0.888889 0.259259 0.213304 Al
0.888889 0.925926 0.213304 Al
0.777778 0.518519 0.213304 Al
0.777778 0.185185 0.213304 Al
0.777778 0.851852 0.213304 Al
0.666667 0.444444 0.213304 Al
0.666667 0.111111 0.213304 Al
0.666667 0.777778 0.213304 Al
0.555556 0.370370 0.213304 Al
0.555556 0.037037 0.213304 Al
0.555556 0.703704 0.213304 Al
0.444444 0.296296 0.213304 Al
0.444444 0.962963 0.213304 Al
0.444444 0.629630 0.213304 Al
0.333333 0.222222 0.213304 Al
0.333333 0.888889 0.213304 Al
0.333333 0.555556 0.213304 Al
0.222222 0.148148 0.213304 Al
0.222222 0.814815 0.213304 Al
0.222222 0.481481 0.213304 Al
0.111111 0.074074 0.213304 Al
0.111111 0.740741 0.213304 Al
0.111111 0.407407 0.213304 Al
0.944444 0.462963 0.243552 Al
0.944444 0.129630 0.243552 Al
0.944444 0.796296 0.243552 Al
0.833333 0.055556 0.243552 Al
0.833333 0.722222 0.243552 Al
0.833333 0.388889 0.243552 Al
0.722222 0.981481 0.243552 Al
0.722222 0.648148 0.243552 Al
0.722222 0.314815 0.243552 Al
0.611111 0.907407 0.243552 Al
0.611111 0.574074 0.243552 Al
0.611111 0.240741 0.243552 Al
0.500000 0.833333 0.243552 Al
0.500000 0.500000 0.243552 Al
0.500000 0.166667 0.243552 Al
0.388889 0.759259 0.243552 Al
0.388889 0.425926 0.243552 Al
0.388889 0.092593 0.243552 Al
0.277778 0.685185 0.243552 Al
0.277778 0.351852 0.243552 Al
0.277778 0.018519 0.243552 Al
0.166667 0.611111 0.243552 Al
0.166667 0.277778 0.243552 Al
0.166667 0.944444 0.243552 Al
0.055556 0.537037 0.243552 Al
0.055556 0.203704 0.243552 Al
0.055556 0.870370 0.243552 Al
0.000000 0.333333 0.273799 Al
0.000000 -0.000000 0.273799 Al
0.000000 0.666667 0.273799 Al
0.888889 0.925926 0.273799 Al
0.888889 0.592593 0.273799 Al
0.888889 0.259259 0.273799 Al
0.777778 0.851852 0.273799 Al
0.777778 0.518519 0.273799 Al
0.777778 0.185185 0.273799 Al
0.666667 0.777778 0.273799 Al
0.666667 0.444444 0.273799 Al
0.666667 0.111111 0.273799 Al
0.555556 0.703704 0.273799 Al
0.555556 0.370370 0.273799 Al
0.555556 0.037037 0.273799 Al
0.444444 0.629630 0.273799 Al
0.444444 0.296296 0.273799 Al
0.444444 0.962963 0.273799 Al
0.333333 0.555556 0.273799 Al
0.333333 0.222222 0.273799 Al
0.333333 0.888889 0.273799 Al
0.222222 0.481481 0.273799 Al
0.222222 0.148148 0.273799 Al
0.222222 0.814815 0.273799 Al
0.111111 0.407407 0.273799 Al
0.111111 0.074074 0.273799 Al
0.111111 0.740741 0.273799 Al
0.944444 0.129630 0.304046 Al
0.944444 0.796296 0.304046 Al
0.944444 0.462963 0.304046 Al
0.833333 0.722222 0.304046 Al
0.833333 0.388889 0.304046 Al
0.833333 0.055556 0.304046 Al
0.722222 0.648148 0.304046 Al
0.722222 0.314815 0.304046 Al
0.722222 0.981481 0.304046 Al
0.611111 0.574074 0.304046 Al
0.611111 0.240741 0.304046 Al
0.611111 0.907407 0.304046 Al
0.500000 0.500000 0.304046 Al
0.500000 0.166667 0.304046 Al
0.500000 0.833333 0.304046 Al
0.388889 0.425926 0.304046 Al
0.388889 0.092593 0.304046 Al
0.388889 0.759259 0.304046 Al
0.277778 0.351852 0.304046 Al
0.277778 0.018519 0.304046 Al
0.277778 0.685185 0.304046 Al
0.166667 0.277778 0.304046 Al
0.166667 0.944444 0.304046 Al
0.166667 0.611111 0.304046 Al
0.055556 0.203704 0.304046 Al
0.055556 0.870370 0.304046 Al
0.055556 0.537037 0.304046 Al
0.000000 -0.000000 0.334294 Al
0.000000 0.666667 0.334294 Al
0.000000 0.333333 0.334294 Al
0.888889 0.592593 0.334294 Al
0.888889 0.259259 0.334294 Al
0.888889 0.925926 0.334294 Al
0.777778 0.518519 0.334294 Al
0.777778 0.185185 0.334294 Al
0.777778 0.851852 0.334294 Al
0.666667 0.444444 0.334294 Al
0.666667 0.111111 0.334294 Al
0.666667 0.777778 0.334294 Al
0.555556 0.370370 0.334294 Al
0.555556 0.037037 0.334294 Al
0.555556 0.703704 0.334294 Al
0.444444 0.296296 0.334294 Al
0.444444 0.962963 0.334294 Al
0.444444 0.629630 0.334294 Al
0.333333 0.222222 0.334294 Al
0.333333 0.888889 0.334294 Al
0.333333 0.555556 0.334294 Al
0.222222 0.148148 0.334294 Al
0.222222 0.814815 0.334294 Al
0.222222 0.481481 0.334294 Al
0.111111 0.074074 0.334294 Al
0.111111 0.740741 0.334294 Al
0.111111 0.407407 0.334294 Al
0.944444 0.462963 0.364541 Al
0.944444 0.129630 0.364541 Al
0.944444 0.796296 0.364541 Al
0.833333 0.055556 0.364541 Al
0.833333 0.722222 0.364541 Al
0.833333 0.388889 0.364541 Al
0.722222 0.981481 0.364541 Al
0.722222 0.648148 0.364541 Al
0.722222 0.314815 0.364541 Al
0.611111 0.907407 0.364541 Al
0.611111 0.574074 0.364541 Al
0.611111 0.240741 0.364541 Al
0.500000 0.833333 0.364541 Al
0.500000 0.500000 0.364541 Al
0.500000 0.166667 0.364541 Al
0.388889 0.759259 0.364541 Al
0.388889 0.425926 0.364541 Al
0.388889 0.092593 0.364541 Al
0.277778 0.685185 0.364541 Al
0.277778 0.351852 0.364541 Al
0.277778 0.018519 0.364541 Al
0.166667 0.611111 0.364541 Al
0.166667 0.277778 0.364541 Al
0.166667 0.944444 0.364541 Al
0.055556 0.537037 0.364541 Al
0.055556 0.203704 0.364541 Al
0.055556 0.870370 0.364541 Al
0.200000 0.600000 0.018523 In
0.400000 0.200000 0.018523 In
0.600000 0.800000 0.018523 In
0.800000 0.400000 0.018523 In
0.000000 0.000000 0.018523 In
0.300000 0.900000 0.018523 In
0.500000 0.500000 0.018523 In
0.700000 0.100000 0.018523 In
0.900000 0.700000 0.018523 In
0.100000 0.300000 0.018523 In
0.100000 0.800000 0.018523 In
0.300000 0.400000 0.018523 In
0.500000 1.000000 0.018523 In
0.700000 0.600000 0.018523 In
0.900000 0.200000 0.018523 In
0.200000 0.100000 0.018523 In
0.400000 0.700000 0.018523 In
0.600000 0.300000 0.018523 In
0.800000 0.900000 0.018523 In
1.000000 0.500000 0.018523 In
0.133333 0.066667 0.092613 In
0.333333 0.666667 0.092613 In
0.533333 0.266667 0.092613 In
0.733333 0.866667 0.092613 In
0.933333 0.466667 0.092613 In
0.233333 0.366667 0.092613 In
0.433333 0.966667 0.092613 In
0.633333 0.566667 0.092613 In
0.833333 0.166667 0.092613 In
0.033333 0.766667 0.092613 In
0.233333 0.866667 0.092613 In
0.433333 0.466667 0.092613 In
0.633333 0.066667 0.092613 In
0.833333 0.666667 0.092613 In
0.033333 0.266667 0.092613 In
0.333333 0.166667 0.092613 In
0.533333 0.766667 0.092613 In
0.733333 0.366667 0.092613 In
0.933333 0.966667 0.092613 In
0.133333 0.566667 0.092613 In
0.266667 0.133333 0.166704 In
0.466667 0.733333 0.166704 In
0.666667 0.333333 0.166704 In
0.866667 0.933333 0.166704 In
0.066667 0.533333 0.166704 In
0.166667 0.833333 0.166704 In
0.366667 0.433333 0.166704 In
0.566667 0.033333 0.166704 In
0.766667 0.633333 0.166704 In
0.966667 0.233333 0.166704 In
0.166667 0.333333 0.166704 In
0.366667 0.933333 0.166704 In
0.566667 0.533333 0.166704 In
0.766667 0.133333 0.166704 In
0.966667 0.733333 0.166704 In
0.066667 0.033333 0.166704 In
0.266667 0.633333 0.166704 In
0.466667 0.233333 0.166704 In
0.666667 0.833333 0.166704 In
0.866667 0.433333 0.166704 In
0.266667 0.133333 1.000000 As
0.466667 0.733333 1.000000 As
0.666667 0.333333 1.000000 As
0.866667 0.933333 1.000000 As
0.066667 0.533333 1.000000 As
0.166667 0.833333 1.000000 As
0.366667 0.433333 1.000000 As
0.566667 0.033333 1.000000 As
0.766667 0.633333 1.000000 As
0.966667 0.233333 1.000000 As
0.166667 0.333333 1.000000 As
0.366667 0.933333 1.000000 As
0.566667 0.533333 1.000000 As
0.766667 0.133333 1.000000 As
0.966667 0.733333 1.000000 As
0.066667 0.033333 1.000000 As
0.266667 0.633333 1.000000 As
0.466667 0.233333 1.000000 As
0.666667 0.833333 1.000000 As
0.866667 0.433333 1.000000 As
1.000000 0.000000 0.074091 As
0.200000 0.600000 0.074091 As
0.400000 0.200000 0.074091 As
0.600000 0.800000 0.074091 As
0.800000 0.400000 0.074091 As
0.300000 0.900000 0.074091 As
0.500000 0.500000 0.074091 As
0.700000 0.100000 0.074091 As
0.900000 0.700000 0.074091 As
0.100000 0.300000 0.074091 As
0.100000 0.800000 0.074091 As
0.300000 0.400000 0.074091 As
0.500000 1.000000 0.074091 As
0.700000 0.600000 0.074091 As
0.900000 0.200000 0.074091 As
0.200000 0.100000 0.074091 As
0.400000 0.700000 0.074091 As
0.600000 0.300000 0.074091 As
0.800000 0.900000 0.074091 As
1.000000 0.500000 0.074091 As
0.133333 0.066667 0.148181 As
0.333333 0.666667 0.148181 As
0.533333 0.266667 0.148181 As
0.733333 0.866667 0.148181 As
0.933333 0.466667 0.148181 As
0.233333 0.366667 0.148181 As
0.433333 0.966667 0.148181 As
0.633333 0.566667 0.148181 As
0.833333 0.166667 0.148181 As
0.033333 0.766667 0.148181 As
0.233333 0.866667 0.148181 As
0.433333 0.466667 0.148181 As
0.633333 0.066667 0.148181 As
0.833333 0.666667 0.148181 As
0.033333 0.266667 0.148181 As
0.333333 0.166667 0.148181 As
0.533333 0.766667 0.148181 As
0.733333 0.366667 0.148181 As
0.933333 0.966667 0.148181 As
0.133333 0.566667 0.148181 As
