Al138 In48 As48
1.0
8.567871 -0.000000 -0.000000
-0.000000 29.679977 -0.000000
0.000000 0.000000 47.209979
Al In As
138 48 48
direct
0.000000 1.000000 0.213304 Al
0.739130 0.826087 0.213304 Al
0.478261 0.652174 0.213304 Al
0.217391 0.478261 0.213304 Al
0.956522 0.304348 0.213304 Al
0.695652 0.130435 0.213304 Al
0.434783 0.956522 0.213304 Al
0.173913 0.782609 0.213304 Al
0.913043 0.608696 0.213304 Al
0.652174 0.434783 0.213304 Al
0.391304 0.260870 0.213304 Al
0.130435 0.086957 0.213304 Al
0.869565 0.913043 0.213304 Al
0.608696 0.739130 0.213304 Al
0.347826 0.565217 0.213304 Al
0.086957 0.391304 0.213304 Al
0.826087 0.217391 0.213304 Al
0.565217 0.043478 0.213304 Al
0.304348 0.869565 0.213304 Al
0.043478 0.695652 0.213304 Al
0.782609 0.521739 0.213304 Al
0.521739 0.347826 0.213304 Al
0.260870 0.173913 0.213304 Al
0.586957 0.891304 0.243552 Al
0.326087 0.717391 0.243552 Al
0.065217 0.543478 0.243552 Al
0.804348 0.369565 0.243552 Al
0.543478 0.195652 0.243552 Al
0.282609 0.021739 0.243552 Al
0.021739 0.847826 0.243552 Al
0.760870 0.673913 0.243552 Al
0.500000 0.500000 0.243552 Al
0.239130 0.326087 0.243552 Al
0.978261 0.152174 0.243552 Al
0.717391 0.978261 0.243552 Al
0.456522 0.804348 0.243552 Al
0.195652 0.630435 0.243552 Al
0.934783 0.456522 0.243552 Al
0.673913 0.282609 0.243552 Al
0.413043 0.108696 0.243552 Al
0.152174 0.934783 0.243552 Al
0.891304 0.760870 0.243552 Al
0.630435 0.586957 0.243552 Al
0.369565 0.413043 0.243552 Al
0.108696 0.239130 0.243552 Al
0.847826 0.065217 0.243552 Al
0.869565 0.913043 0.273799 Al
0.608696 0.739130 0.273799 Al
0.347826 0.565217 0.273799 Al
0.086957 0.391304 0.273799 Al
0.826087 0.217391 0.273799 Al
0.565217 0.043478 0.273799 Al
0.304348 0.869565 0.273799 Al
0.043478 0.695652 0.273799 Al
0.782609 0.521739 0.273799 Al
0.521739 0.347826 0.273799 Al
0.260870 0.173913 0.273799 Al
1.000000 1.000000 0.273799 Al
0.739130 0.826087 0.273799 Al
0.478261 0.652174 0.273799 Al
0.217391 0.478261 0.273799 Al
0.956522 0.304348 0.273799 Al
0.695652 0.130435 0.273799 Al
0.434783 0.956522 0.273799 Al
0.173913 0.782609 0.273799 Al
0.913043 0.608696 0.273799 Al
0.652174 0.434783 0.273799 Al
0.391304 0.260870 0.273799 Al
0.130435 0.086957 0.273799 Al
0.717391 0.978261 0.304046 Al
0.456522 0.804348 0.304046 Al
0.195652 0.630435 0.304046 Al
0.934783 0.456522 0.304046 Al
0.673913 0.282609 0.304046 Al
0.413043 0.108696 0.304046 Al
0.152174 0.934783 0.304046 Al
0.891304 0.760870 0.304046 Al
0.630435 0.586957 0.304046 Al
0.369565 0.413043 0.304046 Al
0.108696 0.239130 0.304046 Al
0.847826 0.065217 0.304046 Al
0.586957 0.891304 0.304046 Al
0.326087 0.717391 0.304046 Al
0.065217 0.543478 0.304046 Al
0.804348 0.369565 0.304046 Al
0.543478 0.195652 0.304046 Al
0.282609 0.021739 0.304046 Al
0.021739 0.847826 0.304046 Al
0.760870 0.673913 0.304046 Al
0.500000 0.500000 0.304046 Al
0.239130 0.326087 0.304046 Al
0.978261 0.152174 0.304046 Al
0.000000 1.000000 0.334294 Al
0.739130 0.826087 0.334294 Al
0.478261 0.652174 0.334294 Al
0.217391 0.478261 0.334294 Al
0.956522 0.304348 0.334294 Al
0.695652 0.130435 0.334294 Al
0.434783 0.956522 0.334294 Al
0.173913 0.782609 0.334294 Al
0.913043 0.608696 0.334294 Al
0.652174 0.434783 0.334294 Al
0.391304 0.260870 0.334294 Al
0.130435 0.086957 0.334294 Al
0.869565 0.913043 0.334294 Al
0.608696 0.739130 0.334294 Al
0.347826 0.565217 0.334294 Al
0.086957 0.391304 0.334294 Al
0.826087 0.217391 0.334294 Al
0.565217 0.043478 0.334294 Al
0.304348 0.869565 0.334294 Al
0.043478 0.695652 0.334294 Al
0.782609 0.521739 0.334294 Al
0.521739 0.347826 0.334294 Al
0.260870 0.173913 0.334294 Al
0.586957 0.891304 0.364541 Al
0.326087 0.717391 0.364541 Al
0.065217 0.543478 0.364541 Al
0.804348 0.369565 0.364541 Al
0.543478 0.195652 0.364541 Al
0.282609 0.021739 0.364541 Al
0.021739 0.847826 0.364541 Al
0.760870 0.673913 0.364541 Al
0.500000 0.500000 0.364541 Al
0.239130 0.326087 0.364541 Al
0.978261 0.152174 0.364541 Al
0.717391 0.978261 0.364541 Al
0.456522 0.804348 0.364541 Al
0.195652 0.630435 0.364541 Al
0.934783 0.456522 0.364541 Al
0.673913 0.282609 0.364541 Al
0.413043 0.108696 0.364541 Al
0.152174 0.934783 0.364541 Al
0.891304 0.760870 0.364541 Al
0.630435 0.586957 0.364541 Al
0.369565 0.413043 0.364541 Al
0.108696 0.239130 0.364541 Al
0.847826 0.065217 0.364541 Al
1.000000 0.000000 0.018523 In
0.500000 0.250000 0.018523 In
1.000000 0.500000 0.018523 In
0.500000 0.750000 0.018523 In
0.250000 0.125000 0.018523 In
0.750000 0.375000 0.018523 In
0.250000 0.625000 0.018523 In
0.750000 0.875000 0.018523 In
0.500000 1.000000 0.018523 In
1.000000 0.250000 0.018523 In
0.500000 0.500000 0.018523 In
1.000000 0.750000 0.018523 In
0.750000 0.125000 0.018523 In
0.250000 0.375000 0.018523 In
0.750000 0.625000 0.018523 In
0.250000 0.875000 0.018523 In
0.500000 0.083333 0.092613 In
1.000000 0.333333 0.092613 In
0.500000 0.583333 0.092613 In
1.000000 0.833333 0.092613 In
0.750000 0.208333 0.092613 In
0.250000 0.458333 0.092613 In
0.750000 0.708333 0.092613 In
0.250000 0.958333 0.092613 In
0.000000 0.083333 0.092613 In
0.500000 0.333333 0.092613 In
1.000000 0.583333 0.092613 In
0.500000 0.833333 0.092613 In
0.250000 0.208333 0.092613 In
0.750000 0.458333 0.092613 In
0.250000 0.708333 0.092613 In
0.750000 0.958333 0.092613 In
0.000000 0.166667 0.166704 In
0.500000 0.416667 0.166704 In
0.000000 0.666667 0.166704 In
0.500000 0.916667 0.166704 In
0.750000 0.041667 0.166704 In
0.250000 0.291667 0.166704 In
0.750000 0.541667 0.166704 In
0.250000 0.791667 0.166704 In
0.500000 0.166667 0.166704 In
0.000000 0.416667 0.166704 In
0.500000 0.666667 0.166704 In
0.000000 0.916667 0.166704 In
0.250000 0.041667 0.166704 In
0.750000 0.291667 0.166704 In
0.250000 0.541667 0.166704 In
0.750000 0.791667 0.166704 In
0.000000 0.166667 0.000000 As
0.500000 0.416667 0.000000 As
0.000000 0.666667 0.000000 As
0.500000 0.916667 0.000000 As
0.750000 0.041667 0.000000 As
0.250000 0.291667 0.000000 As
0.750000 0.541667 0.000000 As
0.250000 0.791667 0.000000 As
0.500000 0.166667 0.000000 As
0.000000 0.416667 0.000000 As
0.500000 0.666667 0.000000 As
0.000000 0.916667 0.000000 As
0.250000 0.041667 0.000000 As
0.750000 0.291667 0.000000 As
0.250000 0.541667 0.000000 As
0.750000 0.791667 0.000000 As
0.000000 1.000000 0.074091 As
0.500000 0.250000 0.074091 As
0.000000 0.500000 0.074091 As
0.500000 0.750000 0.074091 As
0.250000 0.125000 0.074091 As
0.750000 0.375000 0.074091 As
0.250000 0.625000 0.074091 As
0.750000 0.875000 0.074091 As
0.500000 1.000000 0.074091 As
1.000000 0.250000 0.074091 As
0.500000 0.500000 0.074091 As
1.000000 0.750000 0.074091 As
0.750000 0.125000 0.074091 As
0.250000 0.375000 0.074091 As
0.750000 0.625000 0.074091 As
0.250000 0.875000 0.074091 As
0.500000 0.083333 0.148181 As
1.000000 0.333333 0.148181 As
0.500000 0.583333 0.148181 As
1.000000 0.833333 0.148181 As
0.750000 0.208333 0.148181 As
0.250000 0.458333 0.148181 As
0.750000 0.708333 0.148181 As
0.250000 0.958333 0.148181 As
0.000000 0.083333 0.148181 As
0.500000 0.333333 0.148181 As
1.000000 0.583333 0.148181 As
0.500000 0.833333 0.148181 As
0.250000 0.208333 0.148181 As
0.750000 0.458333 0.148181 As
0.250000 0.708333 0.148181 As
0.750000 0.958333 0.148181 As
