Al84 In30 As30
1.0
-2.141968 18.549986 0.000000
8.567871 -0.000000 -0.000000
-0.000000 -0.000000 -47.209979
Al In As
84 30 30
direct
0.000000 -0.000000 0.213304 Al
0.285714 0.285714 0.213304 Al
0.571429 0.571429 0.213304 Al
0.857143 0.857143 0.213304 Al
0.142857 0.142857 0.213304 Al
0.428571 0.428571 0.213304 Al
0.714286 0.714286 0.213304 Al
0.214286 0.714286 0.213304 Al
0.500000 1.000000 0.213304 Al
0.785714 0.285714 0.213304 Al
0.071429 0.571429 0.213304 Al
0.357143 0.857143 0.213304 Al
0.642857 0.142857 0.213304 Al
0.928571 0.428571 0.213304 Al
0.178571 0.428571 0.243552 Al
0.464286 0.714286 0.243552 Al
0.750000 1.000000 0.243552 Al
0.035714 0.285714 0.243552 Al
0.321429 0.571429 0.243552 Al
0.607143 0.857143 0.243552 Al
0.892857 0.142857 0.243552 Al
0.392857 0.142857 0.243552 Al
0.678571 0.428571 0.243552 Al
0.964286 0.714286 0.243552 Al
0.250000 1.000000 0.243552 Al
0.535714 0.285714 0.243552 Al
0.821429 0.571429 0.243552 Al
0.107143 0.857143 0.243552 Al
0.142857 0.142857 0.273799 Al
0.428571 0.428571 0.273799 Al
0.714286 0.714286 0.273799 Al
0.000000 -0.000000 0.273799 Al
0.285714 0.285714 0.273799 Al
0.571429 0.571429 0.273799 Al
0.857143 0.857143 0.273799 Al
0.357143 0.857143 0.273799 Al
0.642857 0.142857 0.273799 Al
0.928571 0.428571 0.273799 Al
0.214286 0.714286 0.273799 Al
0.500000 1.000000 0.273799 Al
0.785714 0.285714 0.273799 Al
0.071429 0.571429 0.273799 Al
0.035714 0.285714 0.304046 Al
0.321429 0.571429 0.304046 Al
0.607143 0.857143 0.304046 Al
0.892857 0.142857 0.304046 Al
0.178571 0.428571 0.304046 Al
0.464286 0.714286 0.304046 Al
0.750000 1.000000 0.304046 Al
0.250000 1.000000 0.304046 Al
0.535714 0.285714 0.304046 Al
0.821429 0.571429 0.304046 Al
0.107143 0.857143 0.304046 Al
0.392857 0.142857 0.304046 Al
0.678571 0.428571 0.304046 Al
0.964286 0.714286 0.304046 Al
0.000000 -0.000000 0.334294 Al
0.285714 0.285714 0.334294 Al
0.571429 0.571429 0.334294 Al
0.857143 0.857143 0.334294 Al
0.142857 0.142857 0.334294 Al
0.428571 0.428571 0.334294 Al
0.714286 0.714286 0.334294 Al
0.214286 0.714286 0.334294 Al
0.500000 1.000000 0.334294 Al
0.785714 0.285714 0.334294 Al
0.071429 0.571429 0.334294 Al
0.357143 0.857143 0.334294 Al
0.642857 0.142857 0.334294 Al
0.928571 0.428571 0.334294 Al
0.178571 0.428571 0.364541 Al
0.464286 0.714286 0.364541 Al
0.750000 1.000000 0.364541 Al
0.035714 0.285714 0.364541 Al
0.321429 0.571429 0.364541 Al
0.607143 0.857143 0.364541 Al
0.892857 0.142857 0.364541 Al
0.392857 0.142857 0.364541 Al
0.678571 0.428571 0.364541 Al
0.964286 0.714286 0.364541 Al
0.250000 1.000000 0.364541 Al
0.535714 0.285714 0.364541 Al
0.821429 0.571429 0.364541 Al
0.107143 0.857143 0.364541 Al
0.400000 0.600000 0.018523 In
0.800000 0.200000 0.018523 In
0.200000 0.800000 0.018523 In
0.600000 0.400000 0.018523 In
1.000000 0.000000 0.018523 In
0.600000 0.900000 0.018523 In
1.000000 0.500000 0.018523 In
0.400000 0.100000 0.018523 In
0.800000 0.700000 0.018523 In
0.200000 0.300000 0.018523 In
0.266667 0.066667 0.092613 In
0.666667 0.666667 0.092613 In
0.066667 0.266667 0.092613 In
0.466667 0.866667 0.092613 In
0.866667 0.466667 0.092613 In
0.466667 0.366667 0.092613 In
0.866667 0.966667 0.092613 In
0.266667 0.566667 0.092613 In
0.666667 0.166667 0.092613 In
0.066667 0.766667 0.092613 In
0.533333 0.133333 0.166704 In
0.933333 0.733333 0.166704 In
0.333333 0.333333 0.166704 In
0.733333 0.933333 0.166704 In
0.133333 0.533333 0.166704 In
0.333333 0.833333 0.166704 In
0.733333 0.433333 0.166704 In
0.133333 0.033333 0.166704 In
0.533333 0.633333 0.166704 In
0.933333 0.233333 0.166704 In
0.533333 0.133333 1.000000 As
0.933333 0.733333 1.000000 As
0.333333 0.333333 1.000000 As
0.733333 0.933333 1.000000 As
0.133333 0.533333 1.000000 As
0.333333 0.833333 1.000000 As
0.733333 0.433333 1.000000 As
0.133333 0.033333 1.000000 As
0.533333 0.633333 1.000000 As
0.933333 0.233333 1.000000 As
1.000000 1.000000 0.074091 As
0.400000 0.600000 0.074091 As
0.800000 0.200000 0.074091 As
0.200000 0.800000 0.074091 As
0.600000 0.400000 0.074091 As
0.600000 0.900000 0.074091 As
1.000000 0.500000 0.074091 As
0.400000 0.100000 0.074091 As
0.800000 0.700000 0.074091 As
0.200000 0.300000 0.074091 As
0.266667 0.066667 0.148181 As
0.666667 0.666667 0.148181 As
0.066667 0.266667 0.148181 As
0.466667 0.866667 0.148181 As
0.866667 0.466667 0.148181 As
0.466667 0.366667 0.148181 As
0.866667 0.966667 0.148181 As
0.266667 0.566667 0.148181 As
0.666667 0.166667 0.148181 As
0.066667 0.766667 0.148181 As
