Al66 In24 As24
1.0
-0.000000 14.839989 0.000000
8.567871 -0.000000 -0.000000
-0.000000 -0.000000 -47.209979
Al In As
66 24 24
direct
1.000000 1.000000 0.213304 Al
0.636364 0.181818 0.213304 Al
0.272727 0.363636 0.213304 Al
0.909091 0.545455 0.213304 Al
0.545455 0.727273 0.213304 Al
0.181818 0.909091 0.213304 Al
0.818182 0.090909 0.213304 Al
0.454545 0.272727 0.213304 Al
0.090909 0.454545 0.213304 Al
0.727273 0.636364 0.213304 Al
0.363636 0.818182 0.213304 Al
0.772727 0.363636 0.243552 Al
0.409091 0.545455 0.243552 Al
0.045455 0.727273 0.243552 Al
0.681818 0.909091 0.243552 Al
0.318182 0.090909 0.243552 Al
0.954545 0.272727 0.243552 Al
0.590909 0.454545 0.243552 Al
0.227273 0.636364 0.243552 Al
0.863636 0.818182 0.243552 Al
0.500000 1.000000 0.243552 Al
0.136364 0.181818 0.243552 Al
0.818182 0.090909 0.273799 Al
0.454545 0.272727 0.273799 Al
0.090909 0.454545 0.273799 Al
0.727273 0.636364 0.273799 Al
0.363636 0.818182 0.273799 Al
0.000000 1.000000 0.273799 Al
0.636364 0.181818 0.273799 Al
0.272727 0.363636 0.273799 Al
0.909091 0.545455 0.273799 Al
0.545455 0.727273 0.273799 Al
0.181818 0.909091 0.273799 Al
0.954545 0.272727 0.304046 Al
0.590909 0.454545 0.304046 Al
0.227273 0.636364 0.304046 Al
0.863636 0.818182 0.304046 Al
0.500000 1.000000 0.304046 Al
0.136364 0.181818 0.304046 Al
0.772727 0.363636 0.304046 Al
0.409091 0.545455 0.304046 Al
0.045455 0.727273 0.304046 Al
0.681818 0.909091 0.304046 Al
0.318182 0.090909 0.304046 Al
0.000000 1.000000 0.334294 Al
0.636364 0.181818 0.334294 Al
0.272727 0.363636 0.334294 Al
0.909091 0.545455 0.334294 Al
0.545455 0.727273 0.334294 Al
0.181818 0.909091 0.334294 Al
0.818182 0.090909 0.334294 Al
0.454545 0.272727 0.334294 Al
0.090909 0.454545 0.334294 Al
0.727273 0.636364 0.334294 Al
0.363636 0.818182 0.334294 Al
0.772727 0.363636 0.364541 Al
0.409091 0.545455 0.364541 Al
0.045455 0.727273 0.364541 Al
0.681818 0.909091 0.364541 Al
0.318182 0.090909 0.364541 Al
0.954545 0.272727 0.364541 Al
0.590909 0.454545 0.364541 Al
0.227273 0.636364 0.364541 Al
0.863636 0.818182 0.364541 Al
0.500000 1.000000 0.364541 Al
0.136364 0.181818 0.364541 Al
0.500000 0.500000 0.018523 In
1.000000 1.000000 0.018523 In
0.500000 0.000000 0.018523 In
0.000000 0.500000 0.018523 In
0.750000 0.750000 0.018523 In
0.250000 0.250000 0.018523 In
0.750000 0.250000 0.018523 In
0.250000 0.750000 0.018523 In
0.833333 0.500000 0.092613 In
0.333333 1.000000 0.092613 In
0.833333 0.000000 0.092613 In
0.333333 0.500000 0.092613 In
0.583333 0.250000 0.092613 In
0.083333 0.750000 0.092613 In
0.583333 0.750000 0.092613 In
0.083333 0.250000 0.092613 In
0.666667 0.000000 0.166704 In
0.166667 0.500000 0.166704 In
0.666667 0.500000 0.166704 In
0.166667 1.000000 0.166704 In
0.916667 0.250000 0.166704 In
0.416667 0.750000 0.166704 In
0.916667 0.750000 0.166704 In
0.416667 0.250000 0.166704 In
0.666667 0.000000 1.000000 As
0.166667 0.500000 1.000000 As
0.666667 0.500000 1.000000 As
0.166667 0.000000 1.000000 As
0.916667 0.250000 1.000000 As
0.416667 0.750000 1.000000 As
0.916667 0.750000 1.000000 As
0.416667 0.250000 1.000000 As
0.000000 1.000000 0.074091 As
0.500000 0.500000 0.074091 As
0.500000 0.000000 0.074091 As
0.000000 0.500000 0.074091 As
0.750000 0.750000 0.074091 As
0.250000 0.250000 0.074091 As
0.750000 0.250000 0.074091 As
0.250000 0.750000 0.074091 As
0.833333 0.500000 0.148181 As
0.333333 1.000000 0.148181 As
0.833333 0.000000 0.148181 As
0.333333 0.500000 0.148181 As
0.583333 0.250000 0.148181 As
0.083333 0.750000 0.148181 As
0.583333 0.750000 0.148181 As
0.083333 0.250000 0.148181 As
