Al144 In48 As48
1.0
15.445950 -0.000000 -0.000000
-4.752600 16.463489 -0.000000
0.000000 0.000000 47.209979
Al In As
144 48 48
direct
1.000000 0.000000 0.213304 Al
0.916667 0.666667 0.213304 Al
0.833333 0.333333 0.213304 Al
0.750000 1.000000 0.213304 Al
0.666667 0.666667 0.213304 Al
0.583333 0.333333 0.213304 Al
0.500000 1.000000 0.213304 Al
0.416667 0.666667 0.213304 Al
0.333333 0.333333 0.213304 Al
0.250000 1.000000 0.213304 Al
0.166667 0.666667 0.213304 Al
0.083333 0.333333 0.213304 Al
0.062500 0.750000 0.243552 Al
0.979167 0.416667 0.243552 Al
0.895833 0.083333 0.243552 Al
0.812500 0.750000 0.243552 Al
0.729167 0.416667 0.243552 Al
0.645833 0.083333 0.243552 Al
0.562500 0.750000 0.243552 Al
0.479167 0.416667 0.243552 Al
0.395833 0.083333 0.243552 Al
0.312500 0.750000 0.243552 Al
0.229167 0.416667 0.243552 Al
0.145833 0.083333 0.243552 Al
0.104167 0.916667 0.243552 Al
0.020833 0.583333 0.243552 Al
0.937500 0.250000 0.243552 Al
0.854167 0.916667 0.243552 Al
0.770833 0.583333 0.243552 Al
0.687500 0.250000 0.243552 Al
0.604167 0.916667 0.243552 Al
0.520833 0.583333 0.243552 Al
0.437500 0.250000 0.243552 Al
0.354167 0.916667 0.243552 Al
0.270833 0.583333 0.243552 Al
0.187500 0.250000 0.243552 Al
0.958333 0.833333 0.213304 Al
0.875000 0.500000 0.213304 Al
0.791667 0.166667 0.213304 Al
0.708333 0.833333 0.213304 Al
0.625000 0.500000 0.213304 Al
0.541667 0.166667 0.213304 Al
0.458333 0.833333 0.213304 Al
0.375000 0.500000 0.213304 Al
0.291667 0.166667 0.213304 Al
0.208333 0.833333 0.213304 Al
0.125000 0.500000 0.213304 Al
0.041667 0.166667 0.213304 Al
0.958333 0.833333 0.273799 Al
0.875000 0.500000 0.273799 Al
0.791667 0.166667 0.273799 Al
0.708333 0.833333 0.273799 Al
0.625000 0.500000 0.273799 Al
0.541667 0.166667 0.273799 Al
0.458333 0.833333 0.273799 Al
0.375000 0.500000 0.273799 Al
0.291667 0.166667 0.273799 Al
0.208333 0.833333 0.273799 Al
0.125000 0.500000 0.273799 Al
0.041667 0.166667 0.273799 Al
0.104167 0.916667 0.304046 Al
0.020833 0.583333 0.304046 Al
0.937500 0.250000 0.304046 Al
0.854167 0.916667 0.304046 Al
0.770833 0.583333 0.304046 Al
0.687500 0.250000 0.304046 Al
0.604167 0.916667 0.304046 Al
0.520833 0.583333 0.304046 Al
0.437500 0.250000 0.304046 Al
0.354167 0.916667 0.304046 Al
0.270833 0.583333 0.304046 Al
0.187500 0.250000 0.304046 Al
0.062500 0.750000 0.304046 Al
0.979167 0.416667 0.304046 Al
0.895833 0.083333 0.304046 Al
0.812500 0.750000 0.304046 Al
0.729167 0.416667 0.304046 Al
0.645833 0.083333 0.304046 Al
0.562500 0.750000 0.304046 Al
0.479167 0.416667 0.304046 Al
0.395833 0.083333 0.304046 Al
0.312500 0.750000 0.304046 Al
0.229167 0.416667 0.304046 Al
0.145833 0.083333 0.304046 Al
1.000000 0.000000 0.273799 Al
0.916667 0.666667 0.273799 Al
0.833333 0.333333 0.273799 Al
0.750000 1.000000 0.273799 Al
0.666667 0.666667 0.273799 Al
0.583333 0.333333 0.273799 Al
0.500000 1.000000 0.273799 Al
0.416667 0.666667 0.273799 Al
0.333333 0.333333 0.273799 Al
0.250000 1.000000 0.273799 Al
0.166667 0.666667 0.273799 Al
0.083333 0.333333 0.273799 Al
1.000000 1.000000 0.334294 Al
0.916667 0.666667 0.334294 Al
0.833333 0.333333 0.334294 Al
0.750000 1.000000 0.334294 Al
0.666667 0.666667 0.334294 Al
0.583333 0.333333 0.334294 Al
0.500000 1.000000 0.334294 Al
0.416667 0.666667 0.334294 Al
0.333333 0.333333 0.334294 Al
0.250000 1.000000 0.334294 Al
0.166667 0.666667 0.334294 Al
0.083333 0.333333 0.334294 Al
0.062500 0.750000 0.364541 Al
0.979167 0.416667 0.364541 Al
0.895833 0.083333 0.364541 Al
0.812500 0.750000 0.364541 Al
0.729167 0.416667 0.364541 Al
0.645833 0.083333 0.364541 Al
0.562500 0.750000 0.364541 Al
0.479167 0.416667 0.364541 Al
0.395833 0.083333 0.364541 Al
0.312500 0.750000 0.364541 Al
0.229167 0.416667 0.364541 Al
0.145833 0.083333 0.364541 Al
0.104167 0.916667 0.364541 Al
0.020833 0.583333 0.364541 Al
0.937500 0.250000 0.364541 Al
0.854167 0.916667 0.364541 Al
0.770833 0.583333 0.364541 Al
0.687500 0.250000 0.364541 Al
0.604167 0.916667 0.364541 Al
0.520833 0.583333 0.364541 Al
0.437500 0.250000 0.364541 Al
0.354167 0.916667 0.364541 Al
0.270833 0.583333 0.364541 Al
0.187500 0.250000 0.364541 Al
0.958333 0.833333 0.334294 Al
0.875000 0.500000 0.334294 Al
0.791667 0.166667 0.334294 Al
0.708333 0.833333 0.334294 Al
0.625000 0.500000 0.334294 Al
0.541667 0.166667 0.334294 Al
0.458333 0.833333 0.334294 Al
0.375000 0.500000 0.334294 Al
0.291667 0.166667 0.334294 Al
0.208333 0.833333 0.334294 Al
0.125000 0.500000 0.334294 Al
0.041667 0.166667 0.334294 Al
0.500000 0.125000 0.018523 In
0.000000 0.750000 0.018523 In
0.500000 0.375000 0.018523 In
1.000000 0.000000 0.018523 In
0.500000 0.625000 0.018523 In
1.000000 0.250000 0.018523 In
0.500000 0.875000 0.018523 In
1.000000 0.500000 0.018523 In
0.250000 0.937500 0.018523 In
0.750000 0.562500 0.018523 In
0.250000 0.187500 0.018523 In
0.750000 0.812500 0.018523 In
0.250000 0.437500 0.018523 In
0.750000 0.062500 0.018523 In
0.250000 0.687500 0.018523 In
0.750000 0.312500 0.018523 In
0.666667 0.916667 0.092613 In
0.166667 0.541667 0.092613 In
0.666667 0.166667 0.092613 In
0.166667 0.791667 0.092613 In
0.666667 0.416667 0.092613 In
0.166667 0.041667 0.092613 In
0.666667 0.666667 0.092613 In
0.166667 0.291667 0.092613 In
0.416667 0.729167 0.092613 In
0.916667 0.354167 0.092613 In
0.416667 0.979167 0.092613 In
0.916667 0.604167 0.092613 In
0.416667 0.229167 0.092613 In
0.916667 0.854167 0.092613 In
0.416667 0.479167 0.092613 In
0.916667 0.104167 0.092613 In
0.333333 0.833333 0.166704 In
0.833333 0.458333 0.166704 In
0.333333 0.083333 0.166704 In
0.833333 0.708333 0.166704 In
0.333333 0.333333 0.166704 In
0.833333 0.958333 0.166704 In
0.333333 0.583333 0.166704 In
0.833333 0.208333 0.166704 In
0.583333 0.020833 0.166704 In
0.083333 0.645833 0.166704 In
0.583333 0.270833 0.166704 In
0.083333 0.895833 0.166704 In
0.583333 0.520833 0.166704 In
0.083333 0.145833 0.166704 In
0.583333 0.770833 0.166704 In
0.083333 0.395833 0.166704 In
0.333333 0.833333 0.000000 As
0.833333 0.458333 0.000000 As
0.333333 0.083333 0.000000 As
0.833333 0.708333 0.000000 As
0.333333 0.333333 0.000000 As
0.833333 0.958333 0.000000 As
0.333333 0.583333 0.000000 As
0.833333 0.208333 0.000000 As
0.583333 0.020833 0.000000 As
0.083333 0.645833 0.000000 As
0.583333 0.270833 0.000000 As
0.083333 0.895833 0.000000 As
0.583333 0.520833 0.000000 As
0.083333 0.145833 0.000000 As
0.583333 0.770833 0.000000 As
0.083333 0.395833 0.000000 As
1.000000 0.000000 0.074091 As
0.500000 0.625000 0.074091 As
1.000000 0.250000 0.074091 As
0.500000 0.875000 0.074091 As
1.000000 0.500000 0.074091 As
0.500000 0.125000 0.074091 As
0.000000 0.750000 0.074091 As
0.500000 0.375000 0.074091 As
0.250000 0.937500 0.074091 As
0.750000 0.562500 0.074091 As
0.250000 0.187500 0.074091 As
0.750000 0.812500 0.074091 As
0.250000 0.437500 0.074091 As
0.750000 0.062500 0.074091 As
0.250000 0.687500 0.074091 As
0.750000 0.312500 0.074091 As
0.666667 0.916667 0.148181 As
0.166667 0.541667 0.148181 As
0.666667 0.166667 0.148181 As
0.166667 0.791667 0.148181 As
0.666667 0.416667 0.148181 As
0.166667 0.041667 0.148181 As
0.666667 0.666667 0.148181 As
0.166667 0.291667 0.148181 As
0.416667 0.729167 0.148181 As
0.916667 0.354167 0.148181 As
0.416667 0.979167 0.148181 As
0.916667 0.604167 0.148181 As
0.416667 0.229167 0.148181 As
0.916667 0.854167 0.148181 As
0.416667 0.479167 0.148181 As
0.916667 0.104167 0.148181 As
