In8 As9 H4
1.0
2.141968 -3.709997 0.000000
2.141968 3.709997 0.000000
0.000000 0.000000 92.354825
In As H
8 9 4
direct
0.333333 0.666667 0.627824 In
0.666667 0.333333 0.589950 In
0.000000 0.000000 0.552076 In
0.333333 0.666667 0.514203 In
0.666667 0.333333 0.476329 In
0.000000 0.000000 0.438455 In
0.333333 0.666667 0.400582 In
0.666667 0.333333 0.362708 In
0.000000 0.000000 0.637292 As
0.333333 0.666667 0.599418 As
0.666667 0.333333 0.561545 As
0.000000 0.000000 0.523671 As
0.333333 0.666667 0.485797 As
0.666667 0.333333 0.447924 As
0.000000 0.000000 0.410050 As
0.333333 0.666667 0.372176 As
0.666667 0.333333 0.334303 As
0.286040 0.143019 0.328402 H
0.856981 0.713961 0.328402 H
0.856981 0.143019 0.328402 H
0.000000 0.000000 0.653751 H
