In1 As2 H4
1.0
2.141968 -3.709997 0.000000
2.141968 3.709997 0.000000
0.000000 0.000000 67.870092
In As H
1 2 4
direct
0.333333 0.666667 0.493558 In
0.000000 0.000000 0.506442 As
0.333333 0.666667 0.454905 As
0.952706 0.476353 0.446876 H
0.523647 0.047294 0.446876 H
0.523647 0.476353 0.446876 H
0.000000 0.000000 0.528839 H
