In2 As3 H4
1.0
2.141968 -3.709997 0.000000
2.141968 3.709997 0.000000
0.000000 0.000000 71.367911
In As H
2 3 4
direct
0.333333 0.666667 0.518379 In
0.666667 0.333333 0.469368 In
0.000000 0.000000 0.530632 As
0.333333 0.666667 0.481621 As
0.666667 0.333333 0.432610 As
0.286040 0.143019 0.424974 H
0.856981 0.713961 0.424974 H
0.856981 0.143019 0.424974 H
0.000000 0.000000 0.551931 H
