In9 As10 H4
1.0
2.141968 -3.709997 0.000000
2.141968 3.709997 0.000000
0.000000 0.000000 95.852643
In As H
9 10 4
direct
0.333333 0.666667 0.641405 In
0.666667 0.333333 0.604913 In
0.000000 0.000000 0.568422 In
0.333333 0.666667 0.531930 In
0.666667 0.333333 0.495439 In
0.000000 0.000000 0.458947 In
0.333333 0.666667 0.422455 In
0.666667 0.333333 0.385964 In
0.000000 0.000000 0.349472 In
0.000000 0.000000 0.650528 As
0.333333 0.666667 0.614036 As
0.666667 0.333333 0.577545 As
0.000000 0.000000 0.541053 As
0.333333 0.666667 0.504561 As
0.666667 0.333333 0.468070 As
0.000000 0.000000 0.431578 As
0.333333 0.666667 0.395087 As
0.666667 0.333333 0.358595 As
0.000000 0.000000 0.322103 As
0.619373 0.809686 0.316418 H
0.190314 0.380627 0.316418 H
0.190314 0.809686 0.316418 H
0.000000 0.000000 0.666386 H
