Al144 In108 As112 H4
1.0
-4.283932 -7.419988 0.000000
-4.283932 7.419988 0.000000
0.000000 0.000000 -214.242634
Al In As H
144 108 112 4
direct
0.000000 0.666667 0.626592 Al
0.000000 0.333333 0.626592 Al
0.000000 0.000000 0.626592 Al
0.666667 0.333333 0.626592 Al
0.666667 1.000000 0.626592 Al
0.666667 0.666667 0.626592 Al
0.333333 1.000000 0.626592 Al
0.333333 0.666667 0.626592 Al
0.333333 0.333333 0.626592 Al
0.222222 0.444444 0.615707 Al
0.222222 0.111111 0.615707 Al
0.222222 0.777778 0.615707 Al
0.888889 0.111111 0.615707 Al
0.888889 0.777778 0.615707 Al
0.888889 0.444444 0.615707 Al
0.555556 0.777778 0.615707 Al
0.555556 0.444444 0.615707 Al
0.555556 0.111111 0.615707 Al
0.444444 0.888889 0.604823 Al
0.444444 0.555556 0.604823 Al
0.444444 0.222222 0.604823 Al
0.111111 0.555556 0.604823 Al
0.111111 0.222222 0.604823 Al
0.111111 0.888889 0.604823 Al
0.777778 0.222222 0.604823 Al
0.777778 0.888889 0.604823 Al
0.777778 0.555556 0.604823 Al
0.000000 0.666667 0.593939 Al
0.000000 0.333333 0.593939 Al
0.000000 0.000000 0.593939 Al
0.666667 0.333333 0.593939 Al
0.666667 1.000000 0.593939 Al
0.666667 0.666667 0.593939 Al
0.333333 1.000000 0.593939 Al
0.333333 0.666667 0.593939 Al
0.333333 0.333333 0.593939 Al
0.222222 0.444444 0.583054 Al
0.222222 0.111111 0.583054 Al
0.222222 0.777778 0.583054 Al
0.888889 0.111111 0.583054 Al
0.888889 0.777778 0.583054 Al
0.888889 0.444444 0.583054 Al
0.555556 0.777778 0.583054 Al
0.555556 0.444444 0.583054 Al
0.555556 0.111111 0.583054 Al
0.444444 0.888889 0.572170 Al
0.444444 0.555556 0.572170 Al
0.444444 0.222222 0.572170 Al
0.111111 0.555556 0.572170 Al
0.111111 0.222222 0.572170 Al
0.111111 0.888889 0.572170 Al
0.777778 0.222222 0.572170 Al
0.777778 0.888889 0.572170 Al
0.777778 0.555556 0.572170 Al
1.000000 0.666667 0.561286 Al
1.000000 0.333333 0.561286 Al
0.000000 0.000000 0.561286 Al
0.666667 0.333333 0.561286 Al
0.666667 0.000000 0.561286 Al
0.666667 0.666667 0.561286 Al
0.333333 0.000000 0.561286 Al
0.333333 0.666667 0.561286 Al
0.333333 0.333333 0.561286 Al
0.222222 0.444444 0.550402 Al
0.222222 0.111111 0.550402 Al
0.222222 0.777778 0.550402 Al
0.888889 0.111111 0.550402 Al
0.888889 0.777778 0.550402 Al
0.888889 0.444444 0.550402 Al
0.555556 0.777778 0.550402 Al
0.555556 0.444444 0.550402 Al
0.555556 0.111111 0.550402 Al
0.444444 0.888889 0.539517 Al
0.444444 0.555556 0.539517 Al
0.444444 0.222222 0.539517 Al
0.111111 0.555556 0.539517 Al
0.111111 0.222222 0.539517 Al
0.111111 0.888889 0.539517 Al
0.777778 0.222222 0.539517 Al
0.777778 0.888889 0.539517 Al
0.777778 0.555556 0.539517 Al
0.000000 0.666667 0.528633 Al
0.000000 0.333333 0.528633 Al
0.000000 0.000000 0.528633 Al
0.666667 0.333333 0.528633 Al
0.666667 0.000000 0.528633 Al
0.666667 0.666667 0.528633 Al
0.333333 0.000000 0.528633 Al
0.333333 0.666667 0.528633 Al
0.333333 0.333333 0.528633 Al
0.222222 0.444444 0.517749 Al
0.222222 0.111111 0.517749 Al
0.222222 0.777778 0.517749 Al
0.888889 0.111111 0.517749 Al
0.888889 0.777778 0.517749 Al
0.888889 0.444444 0.517749 Al
0.555556 0.777778 0.517749 Al
0.555556 0.444444 0.517749 Al
0.555556 0.111111 0.517749 Al
0.444444 0.888889 0.506864 Al
0.444444 0.555556 0.506864 Al
0.444444 0.222222 0.506864 Al
0.111111 0.555556 0.506864 Al
0.111111 0.222222 0.506864 Al
0.111111 0.888889 0.506864 Al
0.777778 0.222222 0.506864 Al
0.777778 0.888889 0.506864 Al
0.777778 0.555556 0.506864 Al
0.666667 0.333333 0.495980 Al
0.666667 1.000000 0.495980 Al
0.666667 0.666667 0.495980 Al
0.333333 1.000000 0.495980 Al
0.333333 0.666667 0.495980 Al
0.333333 0.333333 0.495980 Al
0.000000 0.666667 0.495980 Al
0.000000 0.333333 0.495980 Al
0.000000 0.000000 0.495980 Al
0.2240126758419006  0.4480253516837941  0.4847829040331729 Al
0.2279814138268939  0.1139907069134469  0.4845431375037134 Al
0.2240126758419006  0.7759873241580995  0.4847829040331729 Al
0.8860092930865527  0.1139907069134469  0.4845431375037134 Al
0.8860092930865527  0.7720185861731059  0.4845431375037134 Al
0.8859152756791021  0.4429571378395488  0.4839342080857015 Al
0.5519746483162054  0.7759873241580995  0.4847829040331729 Al
0.5570428621604513  0.4429571378395488  0.4839342080857015 Al
0.5570428621604513  0.1140847243208980  0.4839342080857015 Al
0.4499201938493138  0.8998413876986322  0.4729812433617518 Al
0.4499201938493138  0.5500798061506862  0.4729812433617518 Al
0.4468108650927198  0.2234054325463635  0.4713481271403511 Al
0.1001586123013678  0.5500798061506862  0.4729812433617518 Al
0.1172431603980467  0.2344863207960933  0.474009170299     Al
0.1172431603980467  0.8827568396019532  0.474009170299     Al
0.7765945674536364  0.2234054325463635  0.4713481271403511 Al
0.7655136792039063  0.8827568396019532  0.474009170299     Al
0.7765945674536364  0.5531891349072803  0.4713481271403511 Al
0.0103184257546889  0.6867085552702239  0.461132293262735  Al
0.0103184257546889  0.3236098704844650  0.461132293262735  Al
0.0000000000000000  0.0000000000000000  0.4645222175300698 Al
0.6666669999999968  0.3333330000000032  0.4571574750459397 Al
0.6763901295155341 -0.0103184257546889  0.461132293262735  Al
0.6763901295155341  0.6867085552702239  0.461132293262735  Al
0.3132914447297762 -0.0103184257546889  0.461132293262735  Al
0.3333330000000032  0.6666669999999968  0.4628316138965952 Al
0.3132914447297762  0.3236098704844650  0.461132293262735  Al
0.0000000000000000  0.0000000000000000  0.4409831518017168 In
-0.0057578983071941  0.4971210508464030  0.4403012361555746 In
0.5028789491535970  0.4971210508464030  0.4403012361555746 In
0.5028789491535970  0.0057578983071941  0.4403012361555746 In
0.3333330000000032  0.6666669999999968  0.4245617127322616 In
0.3314627670889264  0.1657318835444584  0.4242184684266603 In
0.8342681164555417  0.1657318835444584  0.4242184684266603 In
0.8342681164555417  0.6685372329110735  0.4242184684266603 In
0.666667 0.333333 0.408161 In
0.666667 0.833333 0.408161 In
0.166667 0.833333 0.408161 In
0.166667 0.333333 0.408161 In
0.000000 0.000000 0.391834 In
1.000000 0.500000 0.391834 In
0.500000 0.500000 0.391834 In
0.500000 0.000000 0.391834 In
0.333333 0.666667 0.375508 In
0.333333 0.166667 0.375508 In
0.833333 0.166667 0.375508 In
0.833333 0.666667 0.375508 In
0.666667 0.333333 0.359182 In
0.666667 0.833333 0.359182 In
0.166667 0.833333 0.359182 In
0.166667 0.333333 0.359182 In
0.000000 0.000000 0.342855 In
1.000000 0.500000 0.342855 In
0.500000 0.500000 0.342855 In
0.500000 0.000000 0.342855 In
0.333333 0.666667 0.326529 In
0.333333 0.166667 0.326529 In
0.833333 0.166667 0.326529 In
0.833333 0.666667 0.326529 In
0.666667 0.333333 0.310202 In
0.666667 0.833333 0.310202 In
0.166667 0.833333 0.310202 In
0.166667 0.333333 0.310202 In
0.000000 0.000000 0.293876 In
1.000000 0.500000 0.293876 In
0.500000 0.500000 0.293876 In
0.500000 0.000000 0.293876 In
0.333333 0.666667 0.277549 In
0.333333 0.166667 0.277549 In
0.833333 0.166667 0.277549 In
0.833333 0.666667 0.277549 In
0.666667 0.333333 0.261223 In
0.666667 0.833333 0.261223 In
0.166667 0.833333 0.261223 In
0.166667 0.333333 0.261223 In
0.000000 0.000000 0.244897 In
1.000000 0.500000 0.244897 In
0.500000 0.500000 0.244897 In
0.500000 0.000000 0.244897 In
0.333333 0.666667 0.228570 In
0.333333 0.166667 0.228570 In
0.833333 0.166667 0.228570 In
0.833333 0.666667 0.228570 In
0.666667 0.333333 0.212244 In
0.666667 0.833333 0.212244 In
0.166667 0.833333 0.212244 In
0.166667 0.333333 0.212244 In
0.000000 0.000000 0.195917 In
0.000000 0.500000 0.195917 In
0.500000 0.500000 0.195917 In
0.500000 1.000000 0.195917 In
0.333333 0.666667 0.179591 In
0.333333 0.166667 0.179591 In
0.833333 0.166667 0.179591 In
0.833333 0.666667 0.179591 In
0.666667 0.333333 0.163264 In
0.666667 0.833333 0.163264 In
0.166667 0.833333 0.163264 In
0.166667 0.333333 0.163264 In
0.000000 0.000000 0.146938 In
1.000000 0.500000 0.146938 In
0.500000 0.500000 0.146938 In
0.500000 0.000000 0.146938 In
0.333333 0.166667 0.130611 In
0.833333 0.166667 0.130611 In
0.833333 0.666667 0.130611 In
0.333333 0.666667 0.130611 In
0.666667 0.333333 0.114285 In
0.666667 0.833333 0.114285 In
0.166667 0.833333 0.114285 In
0.166667 0.333333 0.114285 In
0.000000 0.000000 0.097959 In
1.000000 0.500000 0.097959 In
0.500000 0.500000 0.097959 In
0.500000 0.000000 0.097959 In
0.333333 0.666667 0.081632 In
0.333333 0.166667 0.081632 In
0.833333 0.166667 0.081632 In
0.833333 0.666667 0.081632 In
0.666667 0.333333 0.065306 In
0.666667 0.833333 0.065306 In
0.166667 0.833333 0.065306 In
0.166667 0.333333 0.065306 In
0.000000 0.000000 0.048979 In
0.000000 0.500000 0.048979 In
0.500000 0.500000 0.048979 In
0.500000 1.000000 0.048979 In
0.333333 0.666667 0.032653 In
0.333333 0.166667 0.032653 In
0.833333 0.166667 0.032653 In
0.833333 0.666667 0.032653 In
0.666667 0.333333 0.016326 In
0.666667 0.833333 0.016326 In
0.166667 0.833333 0.016326 In
0.166667 0.333333 0.016326 In
0.0000000000000000  0.0000000000000000  0.4532996838113894 As
-0.0323953549672801  0.4838023225163597  0.4526108610491322 As
0.5161976774836398  0.4838023225163597  0.4526108610491322 As
0.5161976774836398  0.0323953549672801  0.4526108610491322 As
0.3333330000000032  0.6666669999999968  0.4368133794575062 As
0.3286353421324644  0.1643181710662274  0.4364174811124404 As
0.8356818289337727  0.1643181710662274  0.4364174811124404 As
0.8356818289337727  0.6713646578675355  0.4364174811124404 As
0.6666669999999968  0.3333330000000032  0.420382529682849  As
0.6641724926548830  0.8320857463274461  0.420347679725765  As
0.1679142536725537  0.8320857463274461  0.420347679725765  As
0.1679142536725537  0.3358275073451171  0.420347679725765  As
0.000000 0.000000 0.404079 As
1.000000 0.500000 0.404079 As
0.500000 0.500000 0.404079 As
0.500000 0.000000 0.404079 As
0.333333 0.666667 0.387753 As
0.333333 0.166667 0.387753 As
0.833333 0.166667 0.387753 As
0.833333 0.666667 0.387753 As
0.666667 0.333333 0.371426 As
0.666667 0.833333 0.371426 As
0.166667 0.833333 0.371426 As
0.166667 0.333333 0.371426 As
0.000000 0.000000 0.355100 As
1.000000 0.500000 0.355100 As
0.500000 0.500000 0.355100 As
0.500000 0.000000 0.355100 As
0.333333 0.666667 0.338774 As
0.333333 0.166667 0.338774 As
0.833333 0.166667 0.338774 As
0.833333 0.666667 0.338774 As
0.666667 0.333333 0.322447 As
0.666667 0.833333 0.322447 As
0.166667 0.833333 0.322447 As
0.166667 0.333333 0.322447 As
0.000000 0.000000 0.306121 As
1.000000 0.500000 0.306121 As
0.500000 0.500000 0.306121 As
0.500000 0.000000 0.306121 As
0.333333 0.666667 0.289794 As
0.333333 0.166667 0.289794 As
0.833333 0.166667 0.289794 As
0.833333 0.666667 0.289794 As
0.666667 0.333333 0.273468 As
0.666667 0.833333 0.273468 As
0.166667 0.833333 0.273468 As
0.166667 0.333333 0.273468 As
0.000000 0.000000 0.257141 As
1.000000 0.500000 0.257141 As
0.500000 0.500000 0.257141 As
0.500000 0.000000 0.257141 As
0.333333 0.666667 0.240815 As
0.333333 0.166667 0.240815 As
0.833333 0.166667 0.240815 As
0.833333 0.666667 0.240815 As
0.666667 0.333333 0.224489 As
0.666667 0.833333 0.224489 As
0.166667 0.833333 0.224489 As
0.166667 0.333333 0.224489 As
0.000000 0.000000 0.208162 As
1.000000 0.500000 0.208162 As
0.500000 0.500000 0.208162 As
0.500000 0.000000 0.208162 As
0.333333 0.666667 0.191836 As
0.333333 0.166667 0.191836 As
0.833333 0.166667 0.191836 As
0.833333 0.666667 0.191836 As
0.666667 0.333333 0.175509 As
0.666667 0.833333 0.175509 As
0.166667 0.833333 0.175509 As
0.166667 0.333333 0.175509 As
0.000000 0.000000 0.159183 As
1.000000 0.500000 0.159183 As
0.500000 0.500000 0.159183 As
0.500000 0.000000 0.159183 As
0.333333 0.666667 0.142856 As
0.333333 0.166667 0.142856 As
0.833333 0.166667 0.142856 As
0.833333 0.666667 0.142856 As
0.666667 0.333333 0.126530 As
0.666667 0.833333 0.126530 As
0.166667 0.833333 0.126530 As
0.166667 0.333333 0.126530 As
0.000000 0.000000 0.110203 As
1.000000 0.500000 0.110203 As
0.500000 0.500000 0.110203 As
0.500000 0.000000 0.110203 As
0.333333 0.666667 0.093877 As
0.333333 0.166667 0.093877 As
0.833333 0.166667 0.093877 As
0.833333 0.666667 0.093877 As
0.666667 0.333333 0.077551 As
0.666667 0.833333 0.077551 As
0.166667 0.833333 0.077551 As
0.166667 0.333333 0.077551 As
0.000000 0.000000 0.061224 As
1.000000 0.500000 0.061224 As
0.500000 0.500000 0.061224 As
0.500000 0.000000 0.061224 As
0.333333 0.666667 0.044898 As
0.333333 0.166667 0.044898 As
0.833333 0.166667 0.044898 As
0.833333 0.666667 0.044898 As
0.666667 0.333333 0.028571 As
0.666667 0.833333 0.028571 As
0.166667 0.833333 0.028571 As
0.166667 0.333333 0.028571 As
0.000000 0.000000 0.012245 As
1.000000 0.500000 0.012245 As
0.500000 0.500000 0.012245 As
0.500000 0.000000 0.012245 As
0.000000 0.000000 0.005160 H
1.000000 0.500000 0.005160 H
0.500000 0.500000 0.005160 H
0.500000 0.000000 0.005160 H
