Al198 In120 As124 H4
1.0
-4.283932 -7.419988 0.000000
-4.283932 7.419988 0.000000
0.000000 0.000000 -238.727354
Al In As H
198 120 124 4
direct
0.000000 0.666667 0.664890 Al
0.000000 0.333333 0.664890 Al
0.000000 0.000000 0.664890 Al
0.666667 0.333333 0.664890 Al
0.666667 1.000000 0.664890 Al
0.666667 0.666667 0.664890 Al
0.333333 1.000000 0.664890 Al
0.333333 0.666667 0.664890 Al
0.333333 0.333333 0.664890 Al
0.222222 0.444444 0.655122 Al
0.222222 0.111111 0.655122 Al
0.222222 0.777778 0.655122 Al
0.888889 0.111111 0.655122 Al
0.888889 0.777778 0.655122 Al
0.888889 0.444444 0.655122 Al
0.555556 0.777778 0.655122 Al
0.555556 0.444444 0.655122 Al
0.555556 0.111111 0.655122 Al
0.444444 0.888889 0.645354 Al
0.444444 0.555556 0.645354 Al
0.444444 0.222222 0.645354 Al
0.111111 0.555556 0.645354 Al
0.111111 0.222222 0.645354 Al
0.111111 0.888889 0.645354 Al
0.777778 0.222222 0.645354 Al
0.777778 0.888889 0.645354 Al
0.777778 0.555556 0.645354 Al
0.000000 0.000000 0.635586 Al
0.000000 0.666667 0.635586 Al
0.000000 0.333333 0.635586 Al
0.666667 0.666667 0.635586 Al
0.666667 0.333333 0.635586 Al
0.666667 1.000000 0.635586 Al
0.333333 0.333333 0.635586 Al
0.333333 1.000000 0.635586 Al
0.333333 0.666667 0.635586 Al
0.222222 0.444444 0.625818 Al
0.222222 0.111111 0.625818 Al
0.222222 0.777778 0.625818 Al
0.888889 0.111111 0.625818 Al
0.888889 0.777778 0.625818 Al
0.888889 0.444444 0.625818 Al
0.555556 0.777778 0.625818 Al
0.555556 0.444444 0.625818 Al
0.555556 0.111111 0.625818 Al
0.444444 0.888889 0.616050 Al
0.444444 0.555556 0.616050 Al
0.444444 0.222222 0.616050 Al
0.111111 0.555556 0.616050 Al
0.111111 0.222222 0.616050 Al
0.111111 0.888889 0.616050 Al
0.777778 0.222222 0.616050 Al
0.777778 0.888889 0.616050 Al
0.777778 0.555556 0.616050 Al
0.000000 0.666667 0.606282 Al
0.000000 0.333333 0.606282 Al
0.000000 0.000000 0.606282 Al
0.666667 0.333333 0.606282 Al
0.666667 1.000000 0.606282 Al
0.666667 0.666667 0.606282 Al
0.333333 1.000000 0.606282 Al
0.333333 0.666667 0.606282 Al
0.333333 0.333333 0.606282 Al
0.222222 0.444444 0.596514 Al
0.222222 0.111111 0.596514 Al
0.222222 0.777778 0.596514 Al
0.888889 0.111111 0.596514 Al
0.888889 0.777778 0.596514 Al
0.888889 0.444444 0.596514 Al
0.555556 0.777778 0.596514 Al
0.555556 0.444444 0.596514 Al
0.555556 0.111111 0.596514 Al
0.444444 0.888889 0.586746 Al
0.444444 0.555556 0.586746 Al
0.444444 0.222222 0.586746 Al
0.111111 0.555556 0.586746 Al
0.111111 0.222222 0.586746 Al
0.111111 0.888889 0.586746 Al
0.777778 0.222222 0.586746 Al
0.777778 0.888889 0.586746 Al
0.777778 0.555556 0.586746 Al
0.000000 0.000000 0.576978 Al
0.000000 0.666667 0.576978 Al
0.000000 0.333333 0.576978 Al
0.666667 0.666667 0.576978 Al
0.666667 0.333333 0.576978 Al
0.666667 1.000000 0.576978 Al
0.333333 0.333333 0.576978 Al
0.333333 1.000000 0.576978 Al
0.333333 0.666667 0.576978 Al
0.222222 0.444444 0.567210 Al
0.222222 0.111111 0.567210 Al
0.222222 0.777778 0.567210 Al
0.888889 0.111111 0.567210 Al
0.888889 0.777778 0.567210 Al
0.888889 0.444444 0.567210 Al
0.555556 0.777778 0.567210 Al
0.555556 0.444444 0.567210 Al
0.555556 0.111111 0.567210 Al
0.444444 0.888889 0.557442 Al
0.444444 0.555556 0.557442 Al
0.444444 0.222222 0.557442 Al
0.111111 0.555556 0.557442 Al
0.111111 0.222222 0.557442 Al
0.111111 0.888889 0.557442 Al
0.777778 0.222222 0.557442 Al
0.777778 0.888889 0.557442 Al
0.777778 0.555556 0.557442 Al
0.000000 0.000000 0.547674 Al
0.000000 0.666667 0.547674 Al
0.000000 0.333333 0.547674 Al
0.666667 0.666667 0.547674 Al
0.666667 0.333333 0.547674 Al
0.666667 1.000000 0.547674 Al
0.333333 0.333333 0.547674 Al
0.333333 1.000000 0.547674 Al
0.333333 0.666667 0.547674 Al
0.222222 0.444444 0.537906 Al
0.222222 0.111111 0.537906 Al
0.222222 0.777778 0.537906 Al
0.888889 0.111111 0.537906 Al
0.888889 0.777778 0.537906 Al
0.888889 0.444444 0.537906 Al
0.555556 0.777778 0.537906 Al
0.555556 0.444444 0.537906 Al
0.555556 0.111111 0.537906 Al
0.444444 0.888889 0.528138 Al
0.444444 0.555556 0.528138 Al
0.444444 0.222222 0.528138 Al
0.111111 0.555556 0.528138 Al
0.111111 0.222222 0.528138 Al
0.111111 0.888889 0.528138 Al
0.777778 0.222222 0.528138 Al
0.777778 0.888889 0.528138 Al
0.777778 0.555556 0.528138 Al
0.000000 0.666667 0.518370 Al
0.000000 0.333333 0.518370 Al
0.000000 0.000000 0.518370 Al
0.666667 0.333333 0.518370 Al
0.666667 1.000000 0.518370 Al
0.666667 0.666667 0.518370 Al
0.333333 1.000000 0.518370 Al
0.333333 0.666667 0.518370 Al
0.333333 0.333333 0.518370 Al
0.222222 0.444444 0.508602 Al
0.222222 0.111111 0.508602 Al
0.222222 0.777778 0.508602 Al
0.888889 0.111111 0.508602 Al
0.888889 0.777778 0.508602 Al
0.888889 0.444444 0.508602 Al
0.555556 0.777778 0.508602 Al
0.555556 0.444444 0.508602 Al
0.555556 0.111111 0.508602 Al
0.444444 0.888889 0.498834 Al
0.444444 0.555556 0.498834 Al
0.444444 0.222222 0.498834 Al
0.111111 0.555556 0.498834 Al
0.111111 0.222222 0.498834 Al
0.111111 0.888889 0.498834 Al
0.777778 0.222222 0.498834 Al
0.777778 0.888889 0.498834 Al
0.777778 0.555556 0.498834 Al
0.000000 0.666667 0.489067 Al
0.000000 0.333333 0.489067 Al
0.000000 0.000000 0.489067 Al
0.666667 0.333333 0.489067 Al
0.666667 1.000000 0.489067 Al
0.666667 0.666667 0.489067 Al
0.333333 1.000000 0.489067 Al
0.333333 0.666667 0.489067 Al
0.333333 0.333333 0.489067 Al
0.2240126758419006  0.4480253516837941  0.4790183177150038 Al
0.2279814138268939  0.1139907069134469  0.4788031424870472 Al
0.2240126758419006  0.7759873241580995  0.4790183177150038 Al
0.8860092930865527  0.1139907069134469  0.4788031424870472 Al
0.8860092930865527  0.7720185861731059  0.4788031424870472 Al
0.8859152756791021  0.4429571378395488  0.4782566670193261 Al
0.5519746483162054  0.7759873241580995  0.4790183177150038 Al
0.5570428621604513  0.4429571378395488  0.4782566670193261 Al
0.5570428621604513  0.1140847243208980  0.4782566670193261 Al
0.4499201938493138  0.8998413876986322  0.4684270770152914 Al
0.4499201938493138  0.5500798061506862  0.4684270770152914 Al
0.4468108650927198  0.2234054325463635  0.4669614589575424 Al
0.1001586123013678  0.5500798061506862  0.4684270770152914 Al
0.1172431603980467  0.2344863207960933  0.4693495761378494 Al
0.1172431603980467  0.8827568396019532  0.4693495761378494 Al
0.7765945674536364  0.2234054325463635  0.4669614589575424 Al
0.7655136792039063  0.8827568396019532  0.4693495761378494 Al
0.7765945674536364  0.5531891349072803  0.4669614589575424 Al
0.0103184257546889  0.6867085552702239  0.4577933970585826 Al
0.0103184257546889  0.3236098704844650  0.4577933970585826 Al
0.0000000000000000  0.0000000000000000  0.4608356387285268 Al
0.6666669999999968  0.3333330000000032  0.4542262502269824 Al
0.6763901295155341 -0.0103184257546889  0.4577933970585826 Al
0.6763901295155341  0.6867085552702239  0.4577933970585826 Al
0.3132914447297762 -0.0103184257546889  0.4577933970585826 Al
0.3333330000000032  0.6666669999999968  0.4593184293705846 Al
0.3132914447297762  0.3236098704844650  0.4577933970585826 Al
0.0000000000000000  0.0000000000000000  0.4397097960691327 In
0.0057578983071941  0.4971210508464030  0.439097820098439  In
0.5028789491535970  0.4971210508464030  0.439097820098439  In
0.5028789491535970  0.0057578983071941  0.439097820098439  In
0.3333330000000032  0.6666669999999968  0.424972597749117  In
0.3314627670889264  0.1657318835444584  0.4246645577909582 In
0.8342681164555417  0.1657318835444584  0.4246645577909582 In
0.8342681164555417  0.6685372329110735  0.4246645577909582 In
0.666667 0.333333 0.410254 In
0.666667 0.833333 0.410254 In
0.166667 0.833333 0.410254 In
0.166667 0.333333 0.410254 In
0.000000 0.000000 0.395602 In
0.000000 0.500000 0.395602 In
0.500000 0.500000 0.395602 In
0.500000 1.000000 0.395602 In
0.333333 0.666667 0.380950 In
0.333333 0.166667 0.380950 In
0.833333 0.166667 0.380950 In
0.833333 0.666667 0.380950 In
0.666667 0.333333 0.366299 In
0.666667 0.833333 0.366299 In
0.166667 0.833333 0.366299 In
0.166667 0.333333 0.366299 In
0.000000 0.000000 0.351647 In
0.000000 0.500000 0.351647 In
0.500000 0.500000 0.351647 In
0.500000 1.000000 0.351647 In
0.333333 0.666667 0.336995 In
0.333333 0.166667 0.336995 In
0.833333 0.166667 0.336995 In
0.833333 0.666667 0.336995 In
0.666667 0.333333 0.322343 In
0.666667 0.833333 0.322343 In
0.166667 0.833333 0.322343 In
0.166667 0.333333 0.322343 In
0.000000 0.000000 0.307691 In
1.000000 0.500000 0.307691 In
0.500000 0.500000 0.307691 In
0.500000 0.000000 0.307691 In
0.333333 0.666667 0.293039 In
0.333333 0.166667 0.293039 In
0.833333 0.166667 0.293039 In
0.833333 0.666667 0.293039 In
0.666667 0.333333 0.278387 In
0.666667 0.833333 0.278387 In
0.166667 0.833333 0.278387 In
0.166667 0.333333 0.278387 In
0.000000 0.000000 0.263735 In
1.000000 0.500000 0.263735 In
0.500000 0.500000 0.263735 In
0.500000 0.000000 0.263735 In
0.333333 0.666667 0.249083 In
0.333333 0.166667 0.249083 In
0.833333 0.166667 0.249083 In
0.833333 0.666667 0.249083 In
0.666667 0.333333 0.234431 In
0.666667 0.833333 0.234431 In
0.166667 0.833333 0.234431 In
0.166667 0.333333 0.234431 In
0.000000 0.000000 0.219779 In
1.000000 0.500000 0.219779 In
0.500000 0.500000 0.219779 In
0.500000 0.000000 0.219779 In
0.333333 0.666667 0.205127 In
0.333333 0.166667 0.205127 In
0.833333 0.166667 0.205127 In
0.833333 0.666667 0.205127 In
0.666667 0.333333 0.190475 In
0.666667 0.833333 0.190475 In
0.166667 0.833333 0.190475 In
0.166667 0.333333 0.190475 In
0.000000 0.000000 0.175823 In
0.000000 0.500000 0.175823 In
0.500000 0.500000 0.175823 In
0.500000 1.000000 0.175823 In
0.333333 0.666667 0.161171 In
0.333333 0.166667 0.161171 In
0.833333 0.166667 0.161171 In
0.833333 0.666667 0.161171 In
0.666667 0.333333 0.146519 In
0.666667 0.833333 0.146519 In
0.166667 0.833333 0.146519 In
0.166667 0.333333 0.146519 In
0.000000 0.000000 0.131867 In
1.000000 0.500000 0.131867 In
0.500000 0.500000 0.131867 In
0.500000 0.000000 0.131867 In
0.333333 0.666667 0.117216 In
0.333333 0.166667 0.117216 In
0.833333 0.166667 0.117216 In
0.833333 0.666667 0.117216 In
0.666667 0.333333 0.102564 In
0.666667 0.833333 0.102564 In
0.166667 0.833333 0.102564 In
0.166667 0.333333 0.102564 In
0.000000 0.000000 0.087912 In
0.000000 0.500000 0.087912 In
0.500000 0.500000 0.087912 In
0.500000 1.000000 0.087912 In
0.333333 0.666667 0.073260 In
0.333333 0.166667 0.073260 In
0.833333 0.166667 0.073260 In
0.833333 0.666667 0.073260 In
0.666667 0.333333 0.058608 In
0.666667 0.833333 0.058608 In
0.166667 0.833333 0.058608 In
0.166667 0.333333 0.058608 In
0.000000 0.000000 0.043956 In
0.000000 0.500000 0.043956 In
0.500000 0.500000 0.043956 In
0.500000 1.000000 0.043956 In
0.333333 0.666667 0.029304 In
0.333333 0.166667 0.029304 In
0.833333 0.166667 0.029304 In
0.833333 0.666667 0.029304 In
0.666667 0.333333 0.014652 In
0.666667 0.833333 0.014652 In
0.166667 0.833333 0.014652 In
0.166667 0.333333 0.014652 In
0.0000000000000000  0.0000000000000000  0.4507634367582661 As
-0.0323953549672801  0.4838023225163597  0.4501452620896644 As
0.5161976774836398  0.4838023225163597  0.4501452620896644 As
0.5161976774836398  0.0323953549672801  0.4501452620896644 As
0.3333330000000032  0.6666669999999968  0.4359680259663315 As
0.3286353421324644  0.1643181710662274  0.435612732352835 As
0.8356818289337727  0.1643181710662274  0.435612732352835 As
0.8356818289337727  0.6713646578675355  0.435612732352835 As
0.6666669999999968  0.3333330000000032  0.4212223821362538 As
0.6641724926548830  0.8320857463274461  0.4211911065137692 As
0.1679142536725537  0.8320857463274461  0.4211911065137692 As
0.1679142536725537  0.3358275073451171  0.4211911065137692 As
0.000000 0.000000 0.406591 As
0.000000 0.500000 0.406591 As
0.500000 0.500000 0.406591 As
0.500000 1.000000 0.406591 As
0.333333 0.666667 0.391939 As
0.333333 0.166667 0.391939 As
0.833333 0.166667 0.391939 As
0.833333 0.666667 0.391939 As
0.666667 0.333333 0.377287 As
0.666667 0.833333 0.377287 As
0.166667 0.833333 0.377287 As
0.166667 0.333333 0.377287 As
0.000000 0.000000 0.362636 As
1.000000 0.500000 0.362636 As
0.500000 0.500000 0.362636 As
0.500000 0.000000 0.362636 As
0.333333 0.666667 0.347984 As
0.333333 0.166667 0.347984 As
0.833333 0.166667 0.347984 As
0.833333 0.666667 0.347984 As
0.666667 0.333333 0.333332 As
0.666667 0.833333 0.333332 As
0.166667 0.833333 0.333332 As
0.166667 0.333333 0.333332 As
0.000000 0.000000 0.318680 As
1.000000 0.500000 0.318680 As
0.500000 0.500000 0.318680 As
0.500000 0.000000 0.318680 As
0.333333 0.666667 0.304028 As
0.333333 0.166667 0.304028 As
0.833333 0.166667 0.304028 As
0.833333 0.666667 0.304028 As
0.666667 0.333333 0.289376 As
0.666667 0.833333 0.289376 As
0.166667 0.833333 0.289376 As
0.166667 0.333333 0.289376 As
0.000000 0.000000 0.274724 As
0.000000 0.500000 0.274724 As
0.500000 0.500000 0.274724 As
0.500000 1.000000 0.274724 As
0.333333 0.666667 0.260072 As
0.333333 0.166667 0.260072 As
0.833333 0.166667 0.260072 As
0.833333 0.666667 0.260072 As
0.666667 0.333333 0.245420 As
0.666667 0.833333 0.245420 As
0.166667 0.833333 0.245420 As
0.166667 0.333333 0.245420 As
0.000000 0.000000 0.230768 As
0.000000 0.500000 0.230768 As
0.500000 0.500000 0.230768 As
0.500000 1.000000 0.230768 As
0.333333 0.666667 0.216116 As
0.333333 0.166667 0.216116 As
0.833333 0.166667 0.216116 As
0.833333 0.666667 0.216116 As
0.666667 0.333333 0.201464 As
0.666667 0.833333 0.201464 As
0.166667 0.833333 0.201464 As
0.166667 0.333333 0.201464 As
0.000000 0.000000 0.186812 As
1.000000 0.500000 0.186812 As
0.500000 0.500000 0.186812 As
0.500000 0.000000 0.186812 As
0.333333 0.666667 0.172160 As
0.333333 0.166667 0.172160 As
0.833333 0.166667 0.172160 As
0.833333 0.666667 0.172160 As
0.666667 0.333333 0.157508 As
0.666667 0.833333 0.157508 As
0.166667 0.833333 0.157508 As
0.166667 0.333333 0.157508 As
0.000000 0.000000 0.142856 As
1.000000 0.500000 0.142856 As
0.500000 0.500000 0.142856 As
0.500000 0.000000 0.142856 As
0.333333 0.666667 0.128204 As
0.333333 0.166667 0.128204 As
0.833333 0.166667 0.128204 As
0.833333 0.666667 0.128204 As
0.666667 0.333333 0.113553 As
0.666667 0.833333 0.113553 As
0.166667 0.833333 0.113553 As
0.166667 0.333333 0.113553 As
0.000000 0.000000 0.098901 As
0.000000 0.500000 0.098901 As
0.500000 0.500000 0.098901 As
0.500000 1.000000 0.098901 As
0.333333 0.666667 0.084249 As
0.333333 0.166667 0.084249 As
0.833333 0.166667 0.084249 As
0.833333 0.666667 0.084249 As
0.666667 0.333333 0.069597 As
0.666667 0.833333 0.069597 As
0.166667 0.833333 0.069597 As
0.166667 0.333333 0.069597 As
0.000000 0.000000 0.054945 As
1.000000 0.500000 0.054945 As
0.500000 0.500000 0.054945 As
0.500000 0.000000 0.054945 As
0.333333 0.666667 0.040293 As
0.333333 0.166667 0.040293 As
0.833333 0.166667 0.040293 As
0.833333 0.666667 0.040293 As
0.666667 0.333333 0.025641 As
0.666667 0.833333 0.025641 As
0.166667 0.833333 0.025641 As
0.166667 0.333333 0.025641 As
0.000000 0.000000 0.010989 As
1.000000 0.500000 0.010989 As
0.500000 0.500000 0.010989 As
0.500000 0.000000 0.010989 As
0.000000 0.000000 0.004631 H
1.000000 0.500000 0.004631 H
0.500000 0.500000 0.004631 H
0.500000 0.000000 0.004631 H
