Ti2 Mn1 In1
6.48
0.000000 0.500000 0.500000
0.500000 0.000000 0.500000
0.500000 0.500000 0.000000
Ti Mn In
2 1 1
direct
0.000000 0.000000 0.000000 Ti
0.750000 0.750000 0.750000 Ti
0.500000 0.500000 0.500000 Mn
0.250000 0.250000 0.250000 In
