Ti8 Mn4 In4
1.0
6.480000 0.000000 0.000000
0.000000 6.480000 0.000000
0.000000 0.000000 6.480000
Ti Mn In
8 4 4
direct
0.000000 0.000000 0.000000 Ti
0.250000 0.250000 0.250000 Ti
0.000000 0.500000 0.500000 Ti
0.250000 0.750000 0.750000 Ti
0.500000 0.000000 0.500000 Ti
0.750000 0.250000 0.750000 Ti
0.500000 0.500000 0.000000 Ti
0.750000 0.750000 0.250000 Ti
0.500000 0.000000 0.000000 Mn
0.500000 0.500000 0.500000 Mn
0.000000 0.000000 0.500000 Mn
0.000000 0.500000 0.000000 Mn
0.250000 0.250000 0.750000 In
0.250000 0.750000 0.250000 In
0.750000 0.250000 0.250000 In
0.750000 0.750000 0.750000 In
