Sn4
1.0
5.908008 0.000000 0.000000
0.000000 5.908008 0.000000
0.000000 0.000000 3.245622
Sn
4
direct
0.000000 0.000000 0.000000 Sn
0.500000 0.000000 0.250000 Sn
0.500000 0.500000 0.500000 Sn
0.000000 0.500000 0.750000 Sn
