In4 As4
5.94
1.000000 0.000000 0.000000
0.000000 1.000000 0.000000
0.000000 0.000000 1.000000
In Ga As
3 1 4
direct
0.000000 0.000000 0.000000 In
0.000000 0.500000 0.500000 In
0.500000 0.000000 0.500000 In
0.500000 0.500000 0.000000 Ga
0.250000 0.250000 0.250000 As
0.250000 0.750000 0.750000 As
0.750000 0.250000 0.750000 As
0.750000 0.750000 0.250000 As
