In4 As4
5.66
1.000000 0.000000 0.000000
0.000000 1.000000 0.000000
0.000000 0.000000 1.000000
Al As
4 4
direct
0.000000 0.000000 0.000000 Al
0.000000 0.500000 0.500000 Al
0.500000 0.000000 0.500000 Al
0.500000 0.500000 0.000000 Al
0.250000 0.250000 0.250000 As
0.250000 0.750000 0.750000 As
0.750000 0.250000 0.750000 As
0.750000 0.750000 0.250000 As
