Cr12 O18
1.0
2.476500 -4.289424 0.000000
2.476500 4.289424 0.000000
0.000000 0.000000 13.577999
Cr O
12 18
direct
0.333333 0.666667 0.318519 Cr
0.000000 0.000000 0.151852 Cr
0.666667 0.333333 0.181481 Cr
0.333333 0.666667 0.014815 Cr
0.000000 0.000000 0.651852 Cr
0.666667 0.333333 0.485185 Cr
0.333333 0.666667 0.514815 Cr
0.000000 0.000000 0.348148 Cr
0.666667 0.333333 0.985185 Cr
0.333333 0.666667 0.818519 Cr
0.000000 0.000000 0.848148 Cr
0.666667 0.333333 0.681481 Cr
0.666667 0.029533 0.083333 O
0.970467 0.637134 0.083333 O
0.362866 0.333333 0.083333 O
0.000000 0.303801 0.250000 O
0.696199 0.696199 0.250000 O
0.303801 0.000000 0.250000 O
0.333333 0.362866 0.416667 O
0.637134 0.970467 0.416667 O
0.029533 0.666667 0.416667 O
0.666667 0.637134 0.583333 O
0.362866 0.029533 0.583333 O
0.970467 0.333333 0.583333 O
0.000000 0.696199 0.750000 O
0.303801 0.303801 0.750000 O
0.696199 0.000000 0.750000 O
0.333333 0.970467 0.916667 O
0.029533 0.362866 0.916667 O
0.637134 0.666667 0.916667 O
