In65 Fe78 Sb65 H10
1.0
0.000000 0.000000 10.244831
-0.000000 10.244831 0.000000
-92.800950 -0.000000 0.000000
In Fe Sb H
65 78 65 10
direct
0.000000 0.000000 0.453833 In
0.400000 0.200000 0.453833 In
0.800000 0.400000 0.453833 In
0.200000 0.600000 0.453833 In
0.600000 0.800000 0.453833 In
0.700000 0.100000 0.418922 In
0.100000 0.300000 0.418922 In
0.500000 0.500000 0.418922 In
0.900000 0.700000 0.418922 In
0.300000 0.900000 0.418922 In
0.000000 0.000000 0.384012 In
0.400000 0.200000 0.384012 In
0.800000 0.400000 0.384012 In
0.200000 0.600000 0.384012 In
0.600000 0.800000 0.384012 In
0.700000 0.100000 0.349102 In
0.100000 0.300000 0.349102 In
0.500000 0.500000 0.349102 In
0.900000 0.700000 0.349102 In
0.300000 0.900000 0.349102 In
0.000000 0.000000 0.314192 In
0.400000 0.200000 0.314192 In
0.800000 0.400000 0.314192 In
0.200000 0.600000 0.314192 In
0.600000 0.800000 0.314192 In
0.700000 0.100000 0.279282 In
0.100000 0.300000 0.279282 In
0.500000 0.500000 0.279282 In
0.900000 0.700000 0.279282 In
0.300000 0.900000 0.279282 In
0.000000 0.000000 0.244371 In
0.400000 0.200000 0.244371 In
0.800000 0.400000 0.244371 In
0.200000 0.600000 0.244371 In
0.600000 0.800000 0.244371 In
0.700000 0.100000 0.209461 In
0.100000 0.300000 0.209461 In
0.500000 0.500000 0.209461 In
0.900000 0.700000 0.209461 In
0.300000 0.900000 0.209461 In
0.000000 0.000000 0.174551 In
0.400000 0.200000 0.174551 In
0.800000 0.400000 0.174551 In
0.200000 0.600000 0.174551 In
0.600000 0.800000 0.174551 In
0.700000 0.100000 0.139641 In
0.100000 0.300000 0.139641 In
0.500000 0.500000 0.139641 In
0.900000 0.700000 0.139641 In
0.300000 0.900000 0.139641 In
0.000000 0.000000 0.104731 In
0.400000 0.200000 0.104731 In
0.800000 0.400000 0.104731 In
0.200000 0.600000 0.104731 In
0.600000 0.800000 0.104731 In
0.700000 0.100000 0.069820 In
0.100000 0.300000 0.069820 In
0.500000 0.500000 0.069820 In
0.900000 0.700000 0.069820 In
0.300000 0.900000 0.069820 In
0.000000 0.000000 0.034910 In
0.400000 0.200000 0.034910 In
0.800000 0.400000 0.034910 In
0.200000 0.600000 0.034910 In
0.600000 0.800000 0.034910 In
0.067745 0.250874 0.568970 Fe
0.452360 0.173951 0.568970 Fe
0.836975 0.097028 0.568970 Fe
0.683129 0.327797 0.568970 Fe
0.913898 0.481643 0.568970 Fe
0.760052 0.712412 0.568970 Fe
0.606206 0.943182 0.568970 Fe
0.298514 0.404720 0.568970 Fe
0.144668 0.635489 0.568970 Fe
0.990822 0.866258 0.568970 Fe
0.529283 0.558566 0.568970 Fe
0.375437 0.789335 0.568970 Fe
0.221591 0.020105 0.568970 Fe
0.029283 0.058566 0.553528 Fe
0.875437 0.289335 0.553528 Fe
0.260052 0.212412 0.553528 Fe
0.644668 0.135489 0.553528 Fe
0.490822 0.366258 0.553528 Fe
0.721591 0.520105 0.553528 Fe
0.567745 0.750874 0.553528 Fe
0.413898 0.981643 0.553528 Fe
0.106206 0.443182 0.553528 Fe
0.952360 0.673951 0.553528 Fe
0.798514 0.904720 0.553528 Fe
0.336975 0.597028 0.553528 Fe
0.183129 0.827797 0.553528 Fe
0.067745 0.250874 0.538087 Fe
0.913898 0.481643 0.538087 Fe
0.760052 0.712412 0.538087 Fe
0.606206 0.943182 0.538087 Fe
0.452360 0.173951 0.538087 Fe
0.298514 0.404720 0.538087 Fe
0.144668 0.635489 0.538087 Fe
0.990822 0.866258 0.538087 Fe
0.836975 0.097028 0.538087 Fe
0.683129 0.327797 0.538087 Fe
0.529283 0.558566 0.538087 Fe
0.375437 0.789335 0.538087 Fe
0.221591 0.020105 0.538087 Fe
0.029283 0.058566 0.522645 Fe
0.875437 0.289335 0.522645 Fe
0.721591 0.520105 0.522645 Fe
0.567745 0.750874 0.522645 Fe
0.413898 0.981643 0.522645 Fe
0.260052 0.212412 0.522645 Fe
0.106206 0.443182 0.522645 Fe
0.952360 0.673951 0.522645 Fe
0.798514 0.904720 0.522645 Fe
0.644668 0.135489 0.522645 Fe
0.490822 0.366258 0.522645 Fe
0.336975 0.597028 0.522645 Fe
0.183129 0.827797 0.522645 Fe
0.067745 0.250874 0.507203 Fe
0.452360 0.173951 0.507203 Fe
0.836975 0.097028 0.507203 Fe
0.683129 0.327797 0.507203 Fe
0.913898 0.481643 0.507203 Fe
0.760052 0.712412 0.507203 Fe
0.606206 0.943182 0.507203 Fe
0.298514 0.404720 0.507203 Fe
0.144668 0.635489 0.507203 Fe
0.990822 0.866258 0.507203 Fe
0.529283 0.558566 0.507203 Fe
0.375437 0.789335 0.507203 Fe
0.221591 0.020105 0.507203 Fe
0.029283 0.058566 0.491762 Fe
0.875437 0.289335 0.491762 Fe
0.721591 0.520105 0.491762 Fe
0.260052 0.212412 0.491762 Fe
0.106206 0.443182 0.491762 Fe
0.952360 0.673951 0.491762 Fe
0.644668 0.135489 0.491762 Fe
0.490822 0.366258 0.491762 Fe
0.336975 0.597028 0.491762 Fe
0.567745 0.750874 0.491762 Fe
0.413898 0.981643 0.491762 Fe
0.798514 0.904720 0.491762 Fe
0.183129 0.827797 0.491762 Fe
0.200000 0.100000 0.471288 Sb
0.600000 0.300000 0.471288 Sb
0.000000 0.500000 0.471288 Sb
0.800000 0.900000 0.471288 Sb
0.400000 0.700000 0.471288 Sb
0.500000 0.000000 0.436378 Sb
0.900000 0.200000 0.436378 Sb
0.300000 0.400000 0.436378 Sb
0.700000 0.600000 0.436378 Sb
0.100000 0.800000 0.436378 Sb
0.200000 0.100000 0.401467 Sb
0.600000 0.300000 0.401467 Sb
0.000000 0.500000 0.401467 Sb
0.800000 0.900000 0.401467 Sb
0.400000 0.700000 0.401467 Sb
0.500000 0.000000 0.366557 Sb
0.900000 0.200000 0.366557 Sb
0.300000 0.400000 0.366557 Sb
0.700000 0.600000 0.366557 Sb
0.100000 0.800000 0.366557 Sb
0.200000 0.100000 0.331647 Sb
0.600000 0.300000 0.331647 Sb
0.000000 0.500000 0.331647 Sb
0.800000 0.900000 0.331647 Sb
0.400000 0.700000 0.331647 Sb
0.500000 0.000000 0.296737 Sb
0.900000 0.200000 0.296737 Sb
0.300000 0.400000 0.296737 Sb
0.700000 0.600000 0.296737 Sb
0.100000 0.800000 0.296737 Sb
0.200000 0.100000 0.261827 Sb
0.600000 0.300000 0.261827 Sb
0.000000 0.500000 0.261827 Sb
0.800000 0.900000 0.261827 Sb
0.400000 0.700000 0.261827 Sb
0.500000 0.000000 0.226916 Sb
0.900000 0.200000 0.226916 Sb
0.300000 0.400000 0.226916 Sb
0.700000 0.600000 0.226916 Sb
0.100000 0.800000 0.226916 Sb
0.200000 0.100000 0.192006 Sb
0.600000 0.300000 0.192006 Sb
0.000000 0.500000 0.192006 Sb
0.800000 0.900000 0.192006 Sb
0.400000 0.700000 0.192006 Sb
0.500000 0.000000 0.157096 Sb
0.900000 0.200000 0.157096 Sb
0.300000 0.400000 0.157096 Sb
0.700000 0.600000 0.157096 Sb
0.100000 0.800000 0.157096 Sb
0.200000 0.100000 0.122186 Sb
0.600000 0.300000 0.122186 Sb
0.000000 0.500000 0.122186 Sb
0.800000 0.900000 0.122186 Sb
0.400000 0.700000 0.122186 Sb
0.500000 0.000000 0.087276 Sb
0.900000 0.200000 0.087276 Sb
0.300000 0.400000 0.087276 Sb
0.700000 0.600000 0.087276 Sb
0.100000 0.800000 0.087276 Sb
0.200000 0.100000 0.052365 Sb
0.600000 0.300000 0.052365 Sb
0.000000 0.500000 0.052365 Sb
0.800000 0.900000 0.052365 Sb
0.400000 0.700000 0.052365 Sb
0.944505 0.110990 0.021967 H
0.055495 0.889010 0.021967 H
0.655495 0.689010 0.021966 H
0.344505 0.310990 0.021966 H
0.144505 0.710990 0.021965 H
0.855495 0.289010 0.021965 H
0.255495 0.489010 0.021965 H
0.744505 0.510990 0.021965 H
0.455495 0.089010 0.021965 H
0.544505 0.910990 0.021965 H
