In10 Sn20 Sb10
1.0
4.581628 -0.000000 -0.000000
-0.000000 6.479400 -0.000000
-0.000000 -0.000000 63.465196
Sn
20
direct
0.000000 0.000000 0.359525 Sn
0.500000 0.500000 0.395674 Sn
0.000000 0.750000 0.395674 Sn
0.500000 0.250000 0.359525 Sn
0.000000 0.000000 0.431823 Sn
0.500000 0.500000 0.467972 Sn
0.000000 0.750000 0.467972 Sn
0.500000 0.250000 0.431823 Sn
0.000000 0.000000 0.504121 Sn
0.500000 0.500000 0.540270 Sn
0.000000 0.750000 0.540270 Sn
0.500000 0.250000 0.504121 Sn
0.000000 0.000000 0.576419 Sn
0.500000 0.500000 0.612569 Sn
0.000000 0.750000 0.612569 Sn
0.500000 0.250000 0.576419 Sn
0.000000 0.000000 0.648718 Sn
0.500000 0.500000 0.684867 Sn
0.000000 0.750000 0.684867 Sn
0.500000 0.250000 0.648718 Sn
