In10 Sn20 Sb10
1.0
4.581628 -0.000000 -0.000000
-0.000000 6.479400 -0.000000
-0.000000 -0.000000 63.465196
In Sn Sb
10 20 10
direct
0.000000 0.000000 0.000000 In
0.500000 0.500000 0.036096 In
0.000000 0.000000 0.072191 In
0.500000 0.500000 0.108287 In
0.000000 0.000000 0.144382 In
0.500000 0.500000 0.180478 In
0.000000 0.000000 0.216574 In
0.500000 0.500000 0.252669 In
0.000000 0.000000 0.288765 In
0.500000 0.500000 0.324860 In
0.000000 0.000000 0.359525 Sn
0.500000 0.500000 0.395674 Sn
0.000000 0.750000 0.395674 Sn
0.500000 0.250000 0.359525 Sn
0.000000 0.000000 0.431823 Sn
0.500000 0.500000 0.467972 Sn
0.000000 0.750000 0.467972 Sn
0.500000 0.250000 0.431823 Sn
0.000000 0.000000 0.504121 Sn
0.500000 0.500000 0.540270 Sn
0.000000 0.750000 0.540270 Sn
0.500000 0.250000 0.504121 Sn
0.000000 0.000000 0.576419 Sn
0.500000 0.500000 0.612569 Sn
0.000000 0.750000 0.612569 Sn
0.500000 0.250000 0.576419 Sn
0.000000 0.000000 0.648718 Sn
0.500000 0.500000 0.684867 Sn
0.000000 0.750000 0.684867 Sn
0.500000 0.250000 0.648718 Sn
0.000000 0.750000 0.036096 Sb
0.500000 0.250000 0.000000 Sb
0.000000 0.750000 0.108287 Sb
0.500000 0.250000 0.072191 Sb
0.000000 0.750000 0.180478 Sb
0.500000 0.250000 0.144382 Sb
0.000000 0.750000 0.252669 Sb
0.500000 0.250000 0.216574 Sb
0.000000 0.750000 0.324860 Sb
0.500000 0.250000 0.288765 Sb
