Sn40
1.0
9.176832 0.000000 0.000000
0.000000 6.489000 0.000000
0.000000 0.000000 22.942082
Sn
40
direct
-0.000000 0.000000 0.050000 Sn
0.750000 0.500000 0.150000 Sn
0.250000 0.500000 0.150000 Sn
0.500000 0.000000 0.050000 Sn
0.000000 0.750000 0.150000 Sn
0.250000 0.250000 0.050000 Sn
0.750000 0.250000 0.050000 Sn
0.500000 0.750000 0.150000 Sn
0.500000 0.000000 0.250000 Sn
0.250000 0.500000 0.350000 Sn
0.750000 0.500000 0.350000 Sn
0.000000 0.000000 0.250000 Sn
0.500000 0.750000 0.350000 Sn
0.750000 0.250000 0.250000 Sn
0.250000 0.250000 0.250000 Sn
-0.000000 0.750000 0.350000 Sn
-0.000000 0.000000 0.450000 Sn
0.750000 0.500000 0.550000 Sn
0.250000 0.500000 0.550000 Sn
0.500000 0.000000 0.450000 Sn
0.000000 0.750000 0.550000 Sn
0.250000 0.250000 0.450000 Sn
0.750000 0.250000 0.450000 Sn
0.500000 0.750000 0.550000 Sn
0.500000 0.000000 0.650000 Sn
0.250000 0.500000 0.750000 Sn
0.750000 0.500000 0.750000 Sn
-0.000000 0.000000 0.650000 Sn
0.500000 0.750000 0.750000 Sn
0.750000 0.250000 0.650000 Sn
0.250000 0.250000 0.650000 Sn
0.000000 0.750000 0.750000 Sn
0.000000 0.000000 0.850000 Sn
0.750000 0.500000 0.950000 Sn
0.250000 0.500000 0.950000 Sn
0.500000 0.000000 0.850000 Sn
0.000000 0.750000 0.950000 Sn
0.250000 0.250000 0.850000 Sn
0.750000 0.250000 0.850000 Sn
0.500000 0.750000 0.950000 Sn
