Sn2
1.0
0.000000 3.241302 3.241302
3.241302 0.000000 3.241302
3.241302 3.241302 0.000000
Sn
2
direct
0.500000 0.500000 0.500000 Sn
0.750000 0.750000 0.750000 Sn
