Sn20
1.0
4.581628 -0.000000 -0.000000
-0.000000 6.479400 -0.000000
-0.000000 -0.000000 55.060991
Sn
20
direct
1.000000 0.000000 0.000000 Sn
0.500000 0.500000 0.041667 Sn
0.000000 0.750000 0.041667 Sn
0.500000 0.250000 0.000000 Sn
0.000000 0.000000 0.083333 Sn
0.500000 0.500000 0.125000 Sn
0.000000 0.750000 0.125000 Sn
0.500000 0.250000 0.083333 Sn
1.000000 0.000000 0.166667 Sn
0.500000 0.500000 0.208333 Sn
0.000000 0.750000 0.208333 Sn
0.500000 0.250000 0.166667 Sn
1.000000 0.000000 0.250000 Sn
0.500000 0.500000 0.291667 Sn
0.000000 0.750000 0.291667 Sn
0.500000 0.250000 0.250000 Sn
0.000000 0.000000 0.333333 Sn
0.500000 0.500000 0.375000 Sn
0.000000 0.750000 0.375000 Sn
0.500000 0.250000 0.333333 Sn
