Sn20
1.0
4.581628 -0.000000 -0.000000
-0.000000 6.479400 -0.000000
-0.000000 -0.000000 22.942104
Sn
20
direct
0.000000 0.000000 0.000000 Sn
0.500000 0.500000 0.100000 Sn
0.000000 0.750000 0.100000 Sn
0.500000 0.250000 0.000000 Sn
0.000000 0.000000 0.199999 Sn
0.500000 0.500000 0.299999 Sn
0.000000 0.750000 0.299999 Sn
0.500000 0.250000 0.199999 Sn
0.000000 0.000000 0.399999 Sn
0.500000 0.500000 0.499998 Sn
0.000000 0.750000 0.499998 Sn
0.500000 0.250000 0.399999 Sn
0.000000 0.000000 0.599998 Sn
0.500000 0.500000 0.700001 Sn
0.000000 0.750000 0.700001 Sn
0.500000 0.250000 0.599998 Sn
0.000000 0.000000 0.800000 Sn
0.500000 0.500000 0.900000 Sn
0.000000 0.750000 0.900000 Sn
0.500000 0.250000 0.800000 Sn
