In4 As4 H2                              
   1.00000000000000     
     2.1419679999999999   -3.7099970000000000    0.0000000000000000
     2.1419679999999999    3.7099970000000000    0.0000000000000000
     0.0000000000000000    0.0000000000000000   78.3635490000000061
   In   As   H    H 
     4     4     1     1
Selective dynamics
Direct
  0.3333330000000032  0.6666669999999968  0.5613740000000007   F   F   F
  0.6666669999999968  0.3333330000000032  0.5167379999999966   F   F   F
  0.0000000000000000  0.0000000000000000  0.4721029999999971   F   F   F
  0.3333330000000032  0.6666669999999968  0.4274670000000000   F   F   F
  0.0000000000000000  0.0000000000000000  0.5725330000000000   F   F   F
  0.3333330000000032  0.6666669999999968  0.5278970000000029   F   F   F
  0.6666669999999968  0.3333330000000032  0.4832620000000034   F   F   F
  0.0000000000000000  0.0000000000000000  0.4386259999999993   F   F   F
  0.3333330000000032  0.6666659999999993  0.4047464132793345   T   T   T
  0.0000000000000000 -0.0000000000000000  0.5919648876225337   T   T   T
 
  0.00000000E+00  0.00000000E+00  0.00000000E+00
  0.00000000E+00  0.00000000E+00  0.00000000E+00
  0.00000000E+00  0.00000000E+00  0.00000000E+00
  0.00000000E+00  0.00000000E+00  0.00000000E+00
  0.00000000E+00  0.00000000E+00  0.00000000E+00
  0.00000000E+00  0.00000000E+00  0.00000000E+00
  0.00000000E+00  0.00000000E+00  0.00000000E+00
  0.00000000E+00  0.00000000E+00  0.00000000E+00
  0.00000000E+00  0.00000000E+00  0.00000000E+00
  0.00000000E+00  0.00000000E+00  0.00000000E+00
