In3 As3 H2
1.0
2.141968 -3.709997 0.000000
2.141968 3.709997 0.000000
0.000000 0.000000 74.865730
In As H
3 3 2
direct
0.333333 0.666667 0.540881 In
0.666667 0.333333 0.494160 In
0.000000 0.000000 0.447439 In
0.000000 0.000000 0.552561 As
0.333333 0.666667 0.505840 As
0.666667 0.333333 0.459119 As
0.000000 0.999999 0.423656 H
0.000000 0.000000 0.572901 H
