In10 As10 H2
1.0
2.141968 -3.709997 0.000000
2.141968 3.709997 0.000000
0.000000 0.000000 99.350462
In As H
10 10 2
direct
0.333333 0.666667 0.654030 In
0.666667 0.333333 0.618823 In
0.000000 0.000000 0.583616 In
0.333333 0.666667 0.548409 In
0.666667 0.333333 0.513203 In
0.000000 0.000000 0.477996 In
0.333333 0.666667 0.442789 In
0.666667 0.333333 0.407582 In
0.000000 0.000000 0.372375 In
0.333333 0.666667 0.337168 In
0.000000 0.000000 0.662832 As
0.333333 0.666667 0.627625 As
0.666667 0.333333 0.592418 As
0.000000 0.000000 0.557211 As
0.333333 0.666667 0.522004 As
0.666667 0.333333 0.486797 As
0.000000 0.000000 0.451591 As
0.333333 0.666667 0.416384 As
0.666667 0.333333 0.381177 As
0.000000 0.000000 0.345970 As
0.333333 0.666666 0.319247 H
0.000000 0.000000 0.678159 H
