In4 As4 H2
1.0
2.141968 -3.709997 0.000000
2.141968 3.709997 0.000000
0.000000 0.000000 78.363549
In As H
4 4 2
direct
0.333333 0.666667 0.561374 In
0.666667 0.333333 0.516738 In
0.000000 0.000000 0.472103 In
0.333333 0.666667 0.427467 In
0.000000 0.000000 0.572533 As
0.333333 0.666667 0.527897 As
0.666667 0.333333 0.483262 As
0.000000 0.000000 0.438626 As
0.333333 0.666666 0.404746 H
0.000000 0.000000 0.591965 H
