In1 As1 H2
1.0
2.141968 -3.709997 0.000000
2.141968 3.709997 0.000000
0.000000 0.000000 67.870092
In As H
1 1 2
direct
0.333333 0.666667 0.493558 In
0.000000 0.000000 0.506442 As
0.333333 0.666666 0.467324 H
0.000000 0.000000 0.528878 H
