In2 As2 H2
1.0
2.141968 -3.709997 0.000000
2.141968 3.709997 0.000000
0.000000 0.000000 71.367911
In As H
2 2 2
direct
0.333333 0.666667 0.518379 In
0.666667 0.333333 0.469368 In
0.000000 0.000000 0.530632 As
0.333333 0.666667 0.481621 As
0.666667 0.333332 0.444420 H
0.000000 0.000000 0.551969 H
