In6 As6 H2
1.0
2.141968 -3.709997 0.000000
2.141968 3.709997 0.000000
0.000000 0.000000 85.359187
In As H
6 6 2
direct
0.333333 0.666667 0.597322 In
0.666667 0.333333 0.556344 In
0.000000 0.000000 0.515367 In
0.333333 0.666667 0.474389 In
0.666667 0.333333 0.433411 In
0.000000 0.000000 0.392434 In
0.000000 0.000000 0.607566 As
0.333333 0.666667 0.566589 As
0.666667 0.333333 0.525611 As
0.000000 0.000000 0.484633 As
0.333333 0.666667 0.443656 As
0.666667 0.333333 0.402678 As
0.000000 0.999999 0.371575 H
0.000000 0.000000 0.625406 H
