In55 Fe130 Sb55 H10
1.0
0.000000 0.000000 10.244831
-0.000000 10.244831 0.000000
-92.053550 -0.000000 0.000000
In Fe Sb H
55 52 55 10
direct
0.000000 0.000000 0.387130 In
0.400000 0.200000 0.387130 In
0.800000 0.400000 0.387130 In
0.200000 0.600000 0.387130 In
0.600000 0.800000 0.387130 In
0.700000 0.100000 0.351936 In
0.100000 0.300000 0.351936 In
0.500000 0.500000 0.351936 In
0.900000 0.700000 0.351936 In
0.300000 0.900000 0.351936 In
0.000000 0.000000 0.316743 In
0.400000 0.200000 0.316743 In
0.800000 0.400000 0.316743 In
0.200000 0.600000 0.316743 In
0.600000 0.800000 0.316743 In
0.700000 0.100000 0.281549 In
0.100000 0.300000 0.281549 In
0.500000 0.500000 0.281549 In
0.900000 0.700000 0.281549 In
0.300000 0.900000 0.281549 In
0.000000 0.000000 0.246356 In
0.400000 0.200000 0.246356 In
0.800000 0.400000 0.246356 In
0.200000 0.600000 0.246356 In
0.600000 0.800000 0.246356 In
0.700000 0.100000 0.211162 In
0.100000 0.300000 0.211162 In
0.500000 0.500000 0.211162 In
0.900000 0.700000 0.211162 In
0.300000 0.900000 0.211162 In
0.000000 0.000000 0.175968 In
0.400000 0.200000 0.175968 In
0.800000 0.400000 0.175968 In
0.200000 0.600000 0.175968 In
0.600000 0.800000 0.175968 In
0.700000 0.100000 0.140775 In
0.100000 0.300000 0.140775 In
0.500000 0.500000 0.140775 In
0.900000 0.700000 0.140775 In
0.300000 0.900000 0.140775 In
0.000000 0.000000 0.105581 In
0.400000 0.200000 0.105581 In
0.800000 0.400000 0.105581 In
0.200000 0.600000 0.105581 In
0.600000 0.800000 0.105581 In
0.700000 0.100000 0.070387 In
0.100000 0.300000 0.070387 In
0.500000 0.500000 0.070387 In
0.900000 0.700000 0.070387 In
0.300000 0.900000 0.070387 In
0.000000 0.000000 0.035194 In
0.400000 0.200000 0.035194 In
0.800000 0.400000 0.035194 In
0.200000 0.600000 0.035194 In
0.600000 0.800000 0.035194 In
0.067745 0.250874 0.472068 Fe
0.913898 0.481643 0.472068 Fe
0.452360 0.173951 0.472068 Fe
0.298514 0.404720 0.472068 Fe
0.144668 0.635489 0.472068 Fe
0.836975 0.097028 0.472068 Fe
0.683129 0.327797 0.472068 Fe
0.529283 0.558566 0.472068 Fe
0.760052 0.712412 0.472068 Fe
0.606206 0.943182 0.472068 Fe
0.990822 0.866258 0.472068 Fe
0.375437 0.789335 0.472068 Fe
0.221591 0.020105 0.472068 Fe
0.029283 0.058566 0.456501 Fe
0.875437 0.289335 0.456501 Fe
0.721591 0.520105 0.456501 Fe
0.260052 0.212412 0.456501 Fe
0.106206 0.443182 0.456501 Fe
0.952360 0.673951 0.456501 Fe
0.644668 0.135489 0.456501 Fe
0.490822 0.366258 0.456501 Fe
0.336975 0.597028 0.456501 Fe
0.567745 0.750874 0.456501 Fe
0.413898 0.981643 0.456501 Fe
0.798514 0.904720 0.456501 Fe
0.183129 0.827797 0.456501 Fe
0.067745 0.250874 0.440934 Fe
0.913898 0.481643 0.440934 Fe
0.452360 0.173951 0.440934 Fe
0.298514 0.404720 0.440934 Fe
0.144668 0.635489 0.440934 Fe
0.836975 0.097028 0.440934 Fe
0.683129 0.327797 0.440934 Fe
0.529283 0.558566 0.440934 Fe
0.760052 0.712412 0.440934 Fe
0.606206 0.943182 0.440934 Fe
0.990822 0.866258 0.440934 Fe
0.375437 0.789335 0.440934 Fe
0.221591 0.020105 0.440934 Fe
0.029283 0.058566 0.425367 Fe
0.875437 0.289335 0.425367 Fe
0.721591 0.520105 0.425367 Fe
0.260052 0.212412 0.425367 Fe
0.106206 0.443182 0.425367 Fe
0.952360 0.673951 0.425367 Fe
0.644668 0.135489 0.425367 Fe
0.490822 0.366258 0.425367 Fe
0.336975 0.597028 0.425367 Fe
0.567745 0.750874 0.425367 Fe
0.413898 0.981643 0.425367 Fe
0.798514 0.904720 0.425367 Fe
0.183129 0.827797 0.425367 Fe
0.200000 0.100000 0.404727 Sb
0.600000 0.300000 0.404727 Sb
0.000000 0.500000 0.404727 Sb
0.800000 0.900000 0.404727 Sb
0.400000 0.700000 0.404727 Sb
0.500000 0.000000 0.369533 Sb
0.900000 0.200000 0.369533 Sb
0.300000 0.400000 0.369533 Sb
0.700000 0.600000 0.369533 Sb
0.100000 0.800000 0.369533 Sb
0.200000 0.100000 0.334340 Sb
0.600000 0.300000 0.334340 Sb
0.000000 0.500000 0.334340 Sb
0.800000 0.900000 0.334340 Sb
0.400000 0.700000 0.334340 Sb
0.500000 0.000000 0.299146 Sb
0.900000 0.200000 0.299146 Sb
0.300000 0.400000 0.299146 Sb
0.700000 0.600000 0.299146 Sb
0.100000 0.800000 0.299146 Sb
0.200000 0.100000 0.263952 Sb
0.600000 0.300000 0.263952 Sb
0.000000 0.500000 0.263952 Sb
0.800000 0.900000 0.263952 Sb
0.400000 0.700000 0.263952 Sb
0.500000 0.000000 0.228759 Sb
0.900000 0.200000 0.228759 Sb
0.300000 0.400000 0.228759 Sb
0.700000 0.600000 0.228759 Sb
0.100000 0.800000 0.228759 Sb
0.200000 0.100000 0.193565 Sb
0.600000 0.300000 0.193565 Sb
0.000000 0.500000 0.193565 Sb
0.800000 0.900000 0.193565 Sb
0.400000 0.700000 0.193565 Sb
0.500000 0.000000 0.158371 Sb
0.900000 0.200000 0.158371 Sb
0.300000 0.400000 0.158371 Sb
0.700000 0.600000 0.158371 Sb
0.100000 0.800000 0.158371 Sb
0.200000 0.100000 0.123178 Sb
0.600000 0.300000 0.123178 Sb
0.000000 0.500000 0.123178 Sb
0.800000 0.900000 0.123178 Sb
0.400000 0.700000 0.123178 Sb
0.500000 0.000000 0.087984 Sb
0.900000 0.200000 0.087984 Sb
0.300000 0.400000 0.087984 Sb
0.700000 0.600000 0.087984 Sb
0.100000 0.800000 0.087984 Sb
0.200000 0.100000 0.052790 Sb
0.600000 0.300000 0.052790 Sb
0.000000 0.500000 0.052790 Sb
0.800000 0.900000 0.052790 Sb
0.400000 0.700000 0.052790 Sb
0.944505 0.110990 0.022145 H
0.055495 0.889010 0.022145 H
0.655495 0.689010 0.022144 H
0.344505 0.310990 0.022144 H
0.144505 0.710990 0.022144 H
0.855495 0.289010 0.022144 H
0.255495 0.489010 0.022144 H
0.744505 0.510990 0.022143 H
0.455495 0.089010 0.022143 H
0.544505 0.910990 0.022143 H
