In25 Fe78 Sb25 H10                      
   1.00000000000000     
     0.0000000000000000    0.0000000000000000   10.2448309999999996
     0.0000000000000000   10.2448309999999996    0.0000000000000000
   -66.8583500000000015    0.0000000000000000    0.0000000000000000
   In   Fe   Sb   H 
    25    78    25    10
Selective dynamics
Direct
  0.0000000000000000  0.0000000000000000  0.2414851079924085   F   F   T
  0.3999999999999986  0.2000000000000028  0.2413568010108758   F   F   T
  0.7999999999999972  0.3999999999999986  0.2418158883661896   F   F   T
  0.2000000000000028  0.6000000000000014  0.2411950361709074   F   F   T
  0.6000000000000014  0.7999999999999972  0.2415399675310141   F   F   T
  0.7000000000000028  0.1000000000000014  0.1935183949270176   F   F   T
  0.1000000000000014  0.2999999999999972  0.1934772930295744   F   F   T
  0.5000000000000000  0.5000000000000000  0.1934651383397506   F   F   T
  0.8999999999999986  0.7000000000000028  0.1934776024933934   F   F   T
  0.2999999999999972  0.8999999999999986  0.1934870041116706   F   F   T
  0.0000000000000000  0.0000000000000000  0.1453690000000023   F   F   F
  0.3999999999999986  0.2000000000000028  0.1453690000000023   F   F   F
  0.7999999999999972  0.3999999999999986  0.1453690000000023   F   F   F
  0.2000000000000028  0.6000000000000014  0.1453690000000023   F   F   F
  0.6000000000000014  0.7999999999999972  0.1453690000000023   F   F   F
  0.7000000000000028  0.1000000000000014  0.0969120000000032   F   F   F
  0.1000000000000014  0.2999999999999972  0.0969120000000032   F   F   F
  0.5000000000000000  0.5000000000000000  0.0969120000000032   F   F   F
  0.8999999999999986  0.7000000000000028  0.0969120000000032   F   F   F
  0.2999999999999972  0.8999999999999986  0.0969120000000032   F   F   F
  0.0000000000000000  0.0000000000000000  0.0484560000000016   F   F   F
  0.3999999999999986  0.2000000000000028  0.0484560000000016   F   F   F
  0.7999999999999972  0.3999999999999986  0.0484560000000016   F   F   F
  0.2000000000000028  0.6000000000000014  0.0484560000000016   F   F   F
  0.6000000000000014  0.7999999999999972  0.0484560000000016   F   F   F
  0.8369750000000025  0.0970280000000017  0.4017199999999974   F   F   F
  0.6831290000000010  0.3277969999999968  0.4017199999999974   F   F   F
  0.5292829999999995  0.5585659999999990  0.4017199999999974   F   F   F
  0.3754369999999980  0.7893350000000012  0.4017199999999974   F   F   F
  0.2215909999999965  0.0201050000000009  0.4017199999999974   F   F   F
  0.0677450000000022  0.2508740000000032  0.4017199999999974   F   F   F
  0.9138980000000032  0.4816429999999983  0.4017199999999974   F   F   F
  0.7600520000000017  0.7124120000000005  0.4017199999999974   F   F   F
  0.6062060000000002  0.9431820000000002  0.4017199999999974   F   F   F
  0.4523599999999988  0.1739510000000024  0.4017199999999974   F   F   F
  0.2985139999999973  0.4047199999999975  0.4017199999999974   F   F   F
  0.1446680000000029  0.6354889999999997  0.4017199999999974   F   F   F
  0.9908220000000014  0.8662580000000020  0.4017199999999974   F   F   F
  0.0292829999999995  0.0585659999999990  0.3803619999999981   F   F   F
  0.8754369999999980  0.2893350000000012  0.3803619999999981   F   F   F
  0.7215909999999965  0.5201050000000009  0.3803619999999981   F   F   F
  0.2600520000000017  0.2124120000000005  0.3803619999999981   F   F   F
  0.1062060000000002  0.4431820000000002  0.3803619999999981   F   F   F
  0.9523599999999988  0.6739510000000024  0.3803619999999981   F   F   F
  0.6446680000000029  0.1354889999999997  0.3803619999999981   F   F   F
  0.4908220000000014  0.3662580000000020  0.3803619999999981   F   F   F
  0.3369750000000025  0.5970280000000017  0.3803619999999981   F   F   F
  0.5677450000000022  0.7508740000000032  0.3803619999999981   F   F   F
  0.4138980000000032  0.9816429999999983  0.3803619999999981   F   F   F
  0.7985139999999973  0.9047199999999975  0.3803619999999981   F   F   F
  0.1831290000000010  0.8277969999999968  0.3803619999999981   F   F   F
  0.8369750000000025  0.0970280000000017  0.3590030000000013   F   F   F
  0.6831290000000010  0.3277969999999968  0.3590030000000013   F   F   F
  0.5292829999999995  0.5585659999999990  0.3590030000000013   F   F   F
  0.3754369999999980  0.7893350000000012  0.3590030000000013   F   F   F
  0.2215909999999965  0.0201050000000009  0.3590030000000013   F   F   F
  0.0677450000000022  0.2508740000000032  0.3590030000000013   F   F   F
  0.9138980000000032  0.4816429999999983  0.3590030000000013   F   F   F
  0.7600520000000017  0.7124120000000005  0.3590030000000013   F   F   F
  0.6062060000000002  0.9431820000000002  0.3590030000000013   F   F   F
  0.4523599999999988  0.1739510000000024  0.3590030000000013   F   F   F
  0.2985139999999973  0.4047199999999975  0.3590030000000013   F   F   F
  0.1446680000000029  0.6354889999999997  0.3590030000000013   F   F   F
  0.9908220000000014  0.8662580000000020  0.3590030000000013   F   F   F
  0.0292829999999995  0.0585659999999990  0.3376087035930184   F   F   T
  0.8754369999999980  0.2893350000000012  0.3374579271900920   F   F   T
  0.7215909999999965  0.5201050000000009  0.3374137661490192   F   F   T
  0.5677450000000022  0.7508740000000032  0.3376060097099575   F   F   T
  0.4138980000000032  0.9816429999999983  0.3374099192585873   F   F   T
  0.2600520000000017  0.2124120000000005  0.3379357532820927   F   F   T
  0.1062060000000002  0.4431820000000002  0.3378743592230364   F   F   T
  0.9523599999999988  0.6739510000000024  0.3373748257744861   F   F   T
  0.7985139999999973  0.9047199999999975  0.3383319552408023   F   F   T
  0.6446680000000029  0.1354889999999997  0.3374712047235241   F   F   T
  0.4908220000000014  0.3662580000000020  0.3378416199826317   F   F   T
  0.3369750000000025  0.5970280000000017  0.3379688604851503   F   F   T
  0.1831290000000010  0.8277969999999968  0.3373952308509383   F   F   T
  0.8369750000000025  0.0970280000000017  0.3164132836727742   F   F   T
  0.6831290000000010  0.3277969999999968  0.3159240366025374   F   F   T
  0.5292829999999995  0.5585659999999990  0.3165144404305461   F   F   T
  0.0677450000000022  0.2508740000000032  0.3165456019593613   F   F   T
  0.9138980000000032  0.4816429999999983  0.3159023412141703   F   F   T
  0.4523599999999988  0.1739510000000024  0.3164820928422357   F   F   T
  0.2985139999999973  0.4047199999999975  0.3174794167013133   F   F   T
  0.1446680000000029  0.6354889999999997  0.3165139918730365   F   F   T
  0.3754369999999980  0.7893350000000012  0.3161228809963120   F   F   T
  0.2215909999999965  0.0201050000000009  0.3161173478589236   F   F   T
  0.7600520000000017  0.7124120000000005  0.3163086302316088   F   F   T
  0.6062060000000002  0.9431820000000002  0.3164355378939421   F   F   T
  0.9908220000000014  0.8662580000000020  0.3163684267417645   F   F   T
  0.0292829999999995  0.0585659999999990  0.2942871219510751   F   F   T
  0.8754369999999980  0.2893350000000012  0.2934316467118569   F   F   T
  0.7215909999999965  0.5201050000000009  0.2933694428063074   F   F   T
  0.2600520000000017  0.2124120000000005  0.2973564514061933   F   F   T
  0.1062060000000002  0.4431820000000002  0.2974017001381661   F   F   T
  0.9523599999999988  0.6739510000000024  0.2927944025273088   F   F   T
  0.6446680000000029  0.1354889999999997  0.2936296098758482   F   F   T
  0.4908220000000014  0.3662580000000020  0.2969462399734377   F   F   T
  0.3369750000000025  0.5970280000000017  0.2976184299173040   F   F   T
  0.5677450000000022  0.7508740000000032  0.2942499805856146   F   F   T
  0.4138980000000032  0.9816429999999983  0.2931231511188276   F   F   T
  0.7985139999999973  0.9047199999999975  0.3001704823240125   F   F   T
  0.1831290000000010  0.8277969999999968  0.2931246324571979   F   F   T
  0.7999999999999972  0.8999999999999986  0.2651256462772471   F   F   T
  0.2000000000000028  0.1000000000000014  0.2659108321964242   F   F   T
  0.6000000000000014  0.2999999999999972  0.2655531216115955   F   F   T
  0.0000000000000000  0.5000000000000000  0.2655040959071458   F   F   T
  0.3999999999999986  0.7000000000000028  0.2657499368043052   F   F   T
  0.5000000000000000  0.0000000000000000  0.2175260365019647   F   F   T
  0.8999999999999986  0.2000000000000028  0.2174207299292268   F   F   T
  0.2999999999999972  0.3999999999999986  0.2172374660692988   F   F   T
  0.7000000000000028  0.6000000000000014  0.2174453510493116   F   F   T
  0.1000000000000014  0.7999999999999972  0.2172806280499018   F   F   T
  0.2000000000000028  0.1000000000000014  0.1695970000000031   F   F   F
  0.6000000000000014  0.2999999999999972  0.1695970000000031   F   F   F
  0.0000000000000000  0.5000000000000000  0.1695970000000031   F   F   F
  0.7999999999999972  0.8999999999999986  0.1695970000000031   F   F   F
  0.3999999999999986  0.7000000000000028  0.1695970000000031   F   F   F
  0.5000000000000000  0.0000000000000000  0.1211399999999969   F   F   F
  0.8999999999999986  0.2000000000000028  0.1211399999999969   F   F   F
  0.2999999999999972  0.3999999999999986  0.1211399999999969   F   F   F
  0.7000000000000028  0.6000000000000014  0.1211399999999969   F   F   F
  0.1000000000000014  0.7999999999999972  0.1211399999999969   F   F   F
  0.2000000000000028  0.1000000000000014  0.0726840000000024   F   F   F
  0.6000000000000014  0.2999999999999972  0.0726840000000024   F   F   F
  0.0000000000000000  0.5000000000000000  0.0726840000000024   F   F   F
  0.7999999999999972  0.8999999999999986  0.0726840000000024   F   F   F
  0.3999999999999986  0.7000000000000028  0.0726840000000024   F   F   F
  0.0554950000000005  0.8890099999999990  0.0304900805437343   F   F   T
  0.4554949999999991  0.0890100000000018  0.0304875652479667   F   F   T
  0.3445049999999981  0.3109899999999968  0.0304885153598009   F   F   T
  0.9445049999999995  0.1109900000000010  0.0304904075387453   F   F   T
  0.8554949999999977  0.2890099999999975  0.0304880961731865   F   F   T
  0.2554950000000034  0.4890100000000004  0.0304879879121069   F   F   T
  0.1445050000000023  0.7109900000000025  0.0304882395560043   F   F   T
  0.7445049999999966  0.5109899999999996  0.0304878962766203   F   F   T
  0.6554950000000019  0.6890100000000032  0.0304885961436241   F   F   T
  0.5445050000000009  0.9109899999999982  0.0304874022388070   F   F   T
 
  0.00000000E+00  0.00000000E+00  0.00000000E+00
  0.00000000E+00  0.00000000E+00  0.00000000E+00
  0.00000000E+00  0.00000000E+00  0.00000000E+00
  0.00000000E+00  0.00000000E+00  0.00000000E+00
  0.00000000E+00  0.00000000E+00  0.00000000E+00
  0.00000000E+00  0.00000000E+00  0.00000000E+00
  0.00000000E+00  0.00000000E+00  0.00000000E+00
  0.00000000E+00  0.00000000E+00  0.00000000E+00
  0.00000000E+00  0.00000000E+00  0.00000000E+00
  0.00000000E+00  0.00000000E+00  0.00000000E+00
  0.00000000E+00  0.00000000E+00  0.00000000E+00
  0.00000000E+00  0.00000000E+00  0.00000000E+00
  0.00000000E+00  0.00000000E+00  0.00000000E+00
  0.00000000E+00  0.00000000E+00  0.00000000E+00
  0.00000000E+00  0.00000000E+00  0.00000000E+00
  0.00000000E+00  0.00000000E+00  0.00000000E+00
  0.00000000E+00  0.00000000E+00  0.00000000E+00
  0.00000000E+00  0.00000000E+00  0.00000000E+00
  0.00000000E+00  0.00000000E+00  0.00000000E+00
  0.00000000E+00  0.00000000E+00  0.00000000E+00
  0.00000000E+00  0.00000000E+00  0.00000000E+00
  0.00000000E+00  0.00000000E+00  0.00000000E+00
  0.00000000E+00  0.00000000E+00  0.00000000E+00
  0.00000000E+00  0.00000000E+00  0.00000000E+00
  0.00000000E+00  0.00000000E+00  0.00000000E+00
  0.00000000E+00  0.00000000E+00  0.00000000E+00
  0.00000000E+00  0.00000000E+00  0.00000000E+00
  0.00000000E+00  0.00000000E+00  0.00000000E+00
  0.00000000E+00  0.00000000E+00  0.00000000E+00
  0.00000000E+00  0.00000000E+00  0.00000000E+00
  0.00000000E+00  0.00000000E+00  0.00000000E+00
  0.00000000E+00  0.00000000E+00  0.00000000E+00
  0.00000000E+00  0.00000000E+00  0.00000000E+00
  0.00000000E+00  0.00000000E+00  0.00000000E+00
  0.00000000E+00  0.00000000E+00  0.00000000E+00
  0.00000000E+00  0.00000000E+00  0.00000000E+00
  0.00000000E+00  0.00000000E+00  0.00000000E+00
  0.00000000E+00  0.00000000E+00  0.00000000E+00
  0.00000000E+00  0.00000000E+00  0.00000000E+00
  0.00000000E+00  0.00000000E+00  0.00000000E+00
  0.00000000E+00  0.00000000E+00  0.00000000E+00
  0.00000000E+00  0.00000000E+00  0.00000000E+00
  0.00000000E+00  0.00000000E+00  0.00000000E+00
  0.00000000E+00  0.00000000E+00  0.00000000E+00
  0.00000000E+00  0.00000000E+00  0.00000000E+00
  0.00000000E+00  0.00000000E+00  0.00000000E+00
  0.00000000E+00  0.00000000E+00  0.00000000E+00
  0.00000000E+00  0.00000000E+00  0.00000000E+00
  0.00000000E+00  0.00000000E+00  0.00000000E+00
  0.00000000E+00  0.00000000E+00  0.00000000E+00
  0.00000000E+00  0.00000000E+00  0.00000000E+00
  0.00000000E+00  0.00000000E+00  0.00000000E+00
  0.00000000E+00  0.00000000E+00  0.00000000E+00
  0.00000000E+00  0.00000000E+00  0.00000000E+00
  0.00000000E+00  0.00000000E+00  0.00000000E+00
  0.00000000E+00  0.00000000E+00  0.00000000E+00
  0.00000000E+00  0.00000000E+00  0.00000000E+00
  0.00000000E+00  0.00000000E+00  0.00000000E+00
  0.00000000E+00  0.00000000E+00  0.00000000E+00
  0.00000000E+00  0.00000000E+00  0.00000000E+00
  0.00000000E+00  0.00000000E+00  0.00000000E+00
  0.00000000E+00  0.00000000E+00  0.00000000E+00
  0.00000000E+00  0.00000000E+00  0.00000000E+00
  0.00000000E+00  0.00000000E+00  0.00000000E+00
  0.00000000E+00  0.00000000E+00  0.00000000E+00
  0.00000000E+00  0.00000000E+00  0.00000000E+00
  0.00000000E+00  0.00000000E+00  0.00000000E+00
  0.00000000E+00  0.00000000E+00  0.00000000E+00
  0.00000000E+00  0.00000000E+00  0.00000000E+00
  0.00000000E+00  0.00000000E+00  0.00000000E+00
  0.00000000E+00  0.00000000E+00  0.00000000E+00
  0.00000000E+00  0.00000000E+00  0.00000000E+00
  0.00000000E+00  0.00000000E+00  0.00000000E+00
  0.00000000E+00  0.00000000E+00  0.00000000E+00
  0.00000000E+00  0.00000000E+00  0.00000000E+00
  0.00000000E+00  0.00000000E+00  0.00000000E+00
  0.00000000E+00  0.00000000E+00  0.00000000E+00
  0.00000000E+00  0.00000000E+00  0.00000000E+00
  0.00000000E+00  0.00000000E+00  0.00000000E+00
  0.00000000E+00  0.00000000E+00  0.00000000E+00
  0.00000000E+00  0.00000000E+00  0.00000000E+00
  0.00000000E+00  0.00000000E+00  0.00000000E+00
  0.00000000E+00  0.00000000E+00  0.00000000E+00
  0.00000000E+00  0.00000000E+00  0.00000000E+00
  0.00000000E+00  0.00000000E+00  0.00000000E+00
  0.00000000E+00  0.00000000E+00  0.00000000E+00
  0.00000000E+00  0.00000000E+00  0.00000000E+00
  0.00000000E+00  0.00000000E+00  0.00000000E+00
  0.00000000E+00  0.00000000E+00  0.00000000E+00
  0.00000000E+00  0.00000000E+00  0.00000000E+00
  0.00000000E+00  0.00000000E+00  0.00000000E+00
  0.00000000E+00  0.00000000E+00  0.00000000E+00
  0.00000000E+00  0.00000000E+00  0.00000000E+00
  0.00000000E+00  0.00000000E+00  0.00000000E+00
  0.00000000E+00  0.00000000E+00  0.00000000E+00
  0.00000000E+00  0.00000000E+00  0.00000000E+00
  0.00000000E+00  0.00000000E+00  0.00000000E+00
  0.00000000E+00  0.00000000E+00  0.00000000E+00
  0.00000000E+00  0.00000000E+00  0.00000000E+00
  0.00000000E+00  0.00000000E+00  0.00000000E+00
  0.00000000E+00  0.00000000E+00  0.00000000E+00
  0.00000000E+00  0.00000000E+00  0.00000000E+00
  0.00000000E+00  0.00000000E+00  0.00000000E+00
  0.00000000E+00  0.00000000E+00  0.00000000E+00
  0.00000000E+00  0.00000000E+00  0.00000000E+00
  0.00000000E+00  0.00000000E+00  0.00000000E+00
  0.00000000E+00  0.00000000E+00  0.00000000E+00
  0.00000000E+00  0.00000000E+00  0.00000000E+00
  0.00000000E+00  0.00000000E+00  0.00000000E+00
  0.00000000E+00  0.00000000E+00  0.00000000E+00
  0.00000000E+00  0.00000000E+00  0.00000000E+00
  0.00000000E+00  0.00000000E+00  0.00000000E+00
  0.00000000E+00  0.00000000E+00  0.00000000E+00
  0.00000000E+00  0.00000000E+00  0.00000000E+00
  0.00000000E+00  0.00000000E+00  0.00000000E+00
  0.00000000E+00  0.00000000E+00  0.00000000E+00
  0.00000000E+00  0.00000000E+00  0.00000000E+00
  0.00000000E+00  0.00000000E+00  0.00000000E+00
  0.00000000E+00  0.00000000E+00  0.00000000E+00
  0.00000000E+00  0.00000000E+00  0.00000000E+00
  0.00000000E+00  0.00000000E+00  0.00000000E+00
  0.00000000E+00  0.00000000E+00  0.00000000E+00
  0.00000000E+00  0.00000000E+00  0.00000000E+00
  0.00000000E+00  0.00000000E+00  0.00000000E+00
  0.00000000E+00  0.00000000E+00  0.00000000E+00
  0.00000000E+00  0.00000000E+00  0.00000000E+00
  0.00000000E+00  0.00000000E+00  0.00000000E+00
  0.00000000E+00  0.00000000E+00  0.00000000E+00
  0.00000000E+00  0.00000000E+00  0.00000000E+00
  0.00000000E+00  0.00000000E+00  0.00000000E+00
  0.00000000E+00  0.00000000E+00  0.00000000E+00
  0.00000000E+00  0.00000000E+00  0.00000000E+00
  0.00000000E+00  0.00000000E+00  0.00000000E+00
  0.00000000E+00  0.00000000E+00  0.00000000E+00
  0.00000000E+00  0.00000000E+00  0.00000000E+00
  0.00000000E+00  0.00000000E+00  0.00000000E+00
  0.00000000E+00  0.00000000E+00  0.00000000E+00
  0.00000000E+00  0.00000000E+00  0.00000000E+00
