In15 Fe26 Sb15
1.0
0.000000 10.244831 0.000000
10.244831 0.000000 0.000000
0.000000 0.000000 -94.766950
In Sb Fe
15 15 26
cartesian
0.000000 0.000000 -41.619850 In
6.146899 2.048966 -41.619850 In
2.048966 4.097932 -41.619850 In
8.195865 6.146899 -41.619850 In
4.097932 8.195865 -41.619850 In
3.073449 1.024483 -44.859550 In
9.220348 3.073449 -44.859550 In
5.122415 5.122415 -44.859550 In
1.024483 7.171382 -44.859550 In
7.171382 9.220348 -44.859550 In
0.000000 0.000000 -48.099250 In
6.146899 2.048966 -48.099250 In
2.048966 4.097932 -48.099250 In
8.195865 6.146899 -48.099250 In
4.097932 8.195865 -48.099250 In
1.024483 2.048966 -43.239700 Sb
7.171382 4.097932 -43.239700 Sb
3.073449 6.146899 -43.239700 Sb
9.220348 8.195865 -43.239700 Sb
5.122415 0.000000 -43.239700 Sb
1.024483 2.048966 -49.719100 Sb
7.171382 4.097932 -49.719100 Sb
3.073449 6.146899 -49.719100 Sb
9.220348 8.195865 -49.719100 Sb
5.122415 0.000000 -49.719100 Sb
4.097932 3.073449 -46.479400 Sb
0.000000 5.122415 -46.479400 Sb
6.146899 7.171382 -46.479400 Sb
2.048966 9.220348 -46.479400 Sb
8.195865 1.024483 -46.479400 Sb
0.600000 0.300000 -51.819100 Fe
8.480639 1.876128 -51.819100 Fe
6.116447 3.452256 -51.819100 Fe
3.752256 5.028384 -51.819100 Fe
1.388064 6.604511 -51.819100 Fe
9.268703 8.180639 -51.819100 Fe
6.904511 9.756767 -51.819100 Fe
4.540320 1.088064 -51.819100 Fe
2.176128 2.664192 -51.819100 Fe
10.056767 4.240320 -51.819100 Fe
7.692575 5.816447 -51.819100 Fe
5.328384 7.392575 -51.819100 Fe
2.964192 8.968703 -51.819100 Fe
8.874671 10.150799 -53.247100 Fe
6.510479 1.482096 -53.247100 Fe
4.146288 3.058224 -53.247100 Fe
1.782096 4.634352 -53.247100 Fe
9.662735 6.210479 -53.247100 Fe
7.298543 7.786607 -53.247100 Fe
4.934352 9.362735 -53.247100 Fe
2.570160 0.694032 -53.247100 Fe
10.450799 2.270160 -53.247100 Fe
8.086607 3.846288 -53.247100 Fe
5.722415 5.422415 -53.247100 Fe
3.358224 6.998543 -53.247100 Fe
0.994032 8.574671 -53.247100 Fe
