In80 Fe246 Sb80 H10
1.0
0.000000 18.326511 0.000000
18.326511 0.000000 -0.000000
-0.000000 0.000000 -66.883350
In Fe Sb H
80 246 80 10
direct
0.000000 0.000000 0.242190 In
0.750000 0.250000 0.242190 In
0.500000 0.500000 0.242190 In
0.500000 0.000000 0.242190 In
0.250000 0.250000 0.242190 In
0.000000 0.500000 0.242190 In
0.750000 0.000000 0.242190 In
0.500000 0.250000 0.242190 In
0.250000 0.500000 0.242190 In
0.250000 0.000000 0.242190 In
0.000000 0.250000 0.242190 In
0.750000 0.500000 0.242190 In
0.250000 0.750000 0.242190 In
0.750000 0.750000 0.242190 In
0.000000 0.750000 0.242190 In
0.500000 0.750000 0.242190 In
0.875000 0.125000 0.193752 In
0.625000 0.375000 0.193752 In
0.375000 0.625000 0.193752 In
0.375000 0.125000 0.193752 In
0.125000 0.375000 0.193752 In
0.875000 0.625000 0.193752 In
0.625000 0.125000 0.193752 In
0.375000 0.375000 0.193752 In
0.125000 0.625000 0.193752 In
0.125000 0.125000 0.193752 In
0.875000 0.375000 0.193752 In
0.625000 0.625000 0.193752 In
0.125000 0.875000 0.193752 In
0.625000 0.875000 0.193752 In
0.875000 0.875000 0.193752 In
0.375000 0.875000 0.193752 In
0.000000 0.000000 0.145314 In
0.750000 0.250000 0.145314 In
0.500000 0.500000 0.145314 In
0.500000 0.000000 0.145314 In
0.250000 0.250000 0.145314 In
0.000000 0.500000 0.145314 In
0.750000 0.000000 0.145314 In
0.500000 0.250000 0.145314 In
0.250000 0.500000 0.145314 In
0.250000 0.000000 0.145314 In
0.000000 0.250000 0.145314 In
0.750000 0.500000 0.145314 In
0.250000 0.750000 0.145314 In
0.750000 0.750000 0.145314 In
0.000000 0.750000 0.145314 In
0.500000 0.750000 0.145314 In
0.875000 0.125000 0.096876 In
0.625000 0.375000 0.096876 In
0.375000 0.625000 0.096876 In
0.375000 0.125000 0.096876 In
0.125000 0.375000 0.096876 In
0.875000 0.625000 0.096876 In
0.625000 0.125000 0.096876 In
0.375000 0.375000 0.096876 In
0.125000 0.625000 0.096876 In
0.125000 0.125000 0.096876 In
0.875000 0.375000 0.096876 In
0.625000 0.625000 0.096876 In
0.125000 0.875000 0.096876 In
0.625000 0.875000 0.096876 In
0.875000 0.875000 0.096876 In
0.375000 0.875000 0.096876 In
0.000000 0.000000 0.048438 In
0.750000 0.250000 0.048438 In
0.500000 0.500000 0.048438 In
0.500000 0.000000 0.048438 In
0.250000 0.250000 0.048438 In
0.000000 0.500000 0.048438 In
0.750000 0.000000 0.048438 In
0.500000 0.250000 0.048438 In
0.250000 0.500000 0.048438 In
0.250000 0.000000 0.048438 In
0.000000 0.250000 0.048438 In
0.750000 0.500000 0.048438 In
0.250000 0.750000 0.048438 In
0.750000 0.750000 0.048438 In
0.000000 0.750000 0.048438 In
0.500000 0.750000 0.048438 In
0.126126 0.044935 0.401944 Fe
0.223687 0.166886 0.401944 Fe
0.321248 0.288837 0.401944 Fe
0.418809 0.410788 0.401944 Fe
0.516370 0.532739 0.401944 Fe
0.613931 0.654691 0.401944 Fe
0.711492 0.776642 0.401944 Fe
0.809053 0.898593 0.401944 Fe
0.906614 0.020544 0.401944 Fe
0.004175 0.142496 0.401944 Fe
0.101736 0.264447 0.401944 Fe
0.199297 0.386398 0.401944 Fe
0.296858 0.508349 0.401944 Fe
0.394419 0.630300 0.401944 Fe
0.491979 0.752252 0.401944 Fe
0.589540 0.874203 0.401944 Fe
0.687101 0.996154 0.401944 Fe
0.784662 0.118105 0.401944 Fe
0.882223 0.240057 0.401944 Fe
0.979784 0.362008 0.401944 Fe
0.077345 0.483959 0.401944 Fe
0.174906 0.605910 0.401944 Fe
0.272467 0.727861 0.401944 Fe
0.370028 0.849813 0.401944 Fe
0.467589 0.971764 0.401944 Fe
0.565150 0.093715 0.401944 Fe
0.662711 0.215666 0.401944 Fe
0.760272 0.337618 0.401944 Fe
0.857833 0.459569 0.401944 Fe
0.955394 0.581520 0.401944 Fe
0.052955 0.703471 0.401944 Fe
0.150516 0.825422 0.401944 Fe
0.248077 0.947374 0.401944 Fe
0.345638 0.069325 0.401944 Fe
0.443199 0.191276 0.401944 Fe
0.540760 0.313227 0.401944 Fe
0.638321 0.435178 0.401944 Fe
0.735882 0.557130 0.401944 Fe
0.833443 0.679081 0.401944 Fe
0.931004 0.801032 0.401944 Fe
0.028565 0.922983 0.401944 Fe
0.016370 0.032739 0.380518 Fe
0.113931 0.154691 0.380518 Fe
0.211492 0.276642 0.380518 Fe
0.309053 0.398593 0.380518 Fe
0.406614 0.520544 0.380518 Fe
0.504175 0.642496 0.380518 Fe
0.894419 0.130300 0.380518 Fe
0.991979 0.252252 0.380518 Fe
0.089540 0.374203 0.380518 Fe
0.187101 0.496154 0.380518 Fe
0.284662 0.618105 0.380518 Fe
0.674906 0.105910 0.380518 Fe
0.772467 0.227861 0.380518 Fe
0.870028 0.349813 0.380518 Fe
0.967589 0.471764 0.380518 Fe
0.065150 0.593715 0.380518 Fe
0.455394 0.081520 0.380518 Fe
0.552955 0.203471 0.380518 Fe
0.650516 0.325422 0.380518 Fe
0.748077 0.447374 0.380518 Fe
0.845638 0.569325 0.380518 Fe
0.235882 0.057130 0.380518 Fe
0.333443 0.179081 0.380518 Fe
0.431004 0.301032 0.380518 Fe
0.528565 0.422983 0.380518 Fe
0.626126 0.544935 0.380518 Fe
0.723687 0.666886 0.380518 Fe
0.601736 0.764447 0.380518 Fe
0.699297 0.886398 0.380518 Fe
0.796858 0.008349 0.380518 Fe
0.382223 0.740057 0.380518 Fe
0.479784 0.862008 0.380518 Fe
0.577345 0.983959 0.380518 Fe
0.162711 0.715666 0.380518 Fe
0.260272 0.837618 0.380518 Fe
0.357833 0.959569 0.380518 Fe
0.943199 0.691276 0.380518 Fe
0.040760 0.813227 0.380518 Fe
0.138321 0.935178 0.380518 Fe
0.821248 0.788837 0.380518 Fe
0.918809 0.910788 0.380518 Fe
0.126126 0.044935 0.359093 Fe
0.223687 0.166886 0.359093 Fe
0.321248 0.288837 0.359093 Fe
0.418809 0.410788 0.359093 Fe
0.516370 0.532739 0.359093 Fe
0.613931 0.654691 0.359093 Fe
0.711492 0.776642 0.359093 Fe
0.809053 0.898593 0.359093 Fe
0.906614 0.020544 0.359093 Fe
0.004175 0.142496 0.359093 Fe
0.101736 0.264447 0.359093 Fe
0.199297 0.386398 0.359093 Fe
0.296858 0.508349 0.359093 Fe
0.394419 0.630300 0.359093 Fe
0.491979 0.752252 0.359093 Fe
0.589540 0.874203 0.359093 Fe
0.687101 0.996154 0.359093 Fe
0.784662 0.118105 0.359093 Fe
0.882223 0.240057 0.359093 Fe
0.979784 0.362008 0.359093 Fe
0.077345 0.483959 0.359093 Fe
0.174906 0.605910 0.359093 Fe
0.272467 0.727861 0.359093 Fe
0.370028 0.849813 0.359093 Fe
0.467589 0.971764 0.359093 Fe
0.565150 0.093715 0.359093 Fe
0.662711 0.215666 0.359093 Fe
0.760272 0.337618 0.359093 Fe
0.857833 0.459569 0.359093 Fe
0.955394 0.581520 0.359093 Fe
0.052955 0.703471 0.359093 Fe
0.150516 0.825422 0.359093 Fe
0.248077 0.947374 0.359093 Fe
0.345638 0.069325 0.359093 Fe
0.443199 0.191276 0.359093 Fe
0.540760 0.313227 0.359093 Fe
0.638321 0.435178 0.359093 Fe
0.735882 0.557130 0.359093 Fe
0.833443 0.679081 0.359093 Fe
0.931004 0.801032 0.359093 Fe
0.028565 0.922983 0.359093 Fe
0.016370 0.032739 0.337668 Fe
0.113931 0.154691 0.337668 Fe
0.211492 0.276642 0.337668 Fe
0.309053 0.398593 0.337668 Fe
0.406614 0.520544 0.337668 Fe
0.504175 0.642496 0.337668 Fe
0.601736 0.764447 0.337668 Fe
0.699297 0.886398 0.337668 Fe
0.796858 0.008349 0.337668 Fe
0.894419 0.130300 0.337668 Fe
0.991979 0.252252 0.337668 Fe
0.089540 0.374203 0.337668 Fe
0.187101 0.496154 0.337668 Fe
0.284662 0.618105 0.337668 Fe
0.382223 0.740057 0.337668 Fe
0.479784 0.862008 0.337668 Fe
0.577345 0.983959 0.337668 Fe
0.674906 0.105910 0.337668 Fe
0.772467 0.227861 0.337668 Fe
0.870028 0.349813 0.337668 Fe
0.967589 0.471764 0.337668 Fe
0.065150 0.593715 0.337668 Fe
0.162711 0.715666 0.337668 Fe
0.260272 0.837618 0.337668 Fe
0.357833 0.959569 0.337668 Fe
0.455394 0.081520 0.337668 Fe
0.552955 0.203471 0.337668 Fe
0.650516 0.325422 0.337668 Fe
0.748077 0.447374 0.337668 Fe
0.845638 0.569325 0.337668 Fe
0.943199 0.691276 0.337668 Fe
0.040760 0.813227 0.337668 Fe
0.138321 0.935178 0.337668 Fe
0.235882 0.057130 0.337668 Fe
0.333443 0.179081 0.337668 Fe
0.431004 0.301032 0.337668 Fe
0.528565 0.422983 0.337668 Fe
0.626126 0.544935 0.337668 Fe
0.723687 0.666886 0.337668 Fe
0.821248 0.788837 0.337668 Fe
0.918809 0.910788 0.337668 Fe
0.126126 0.044935 0.316242 Fe
0.223687 0.166886 0.316242 Fe
0.321248 0.288837 0.316242 Fe
0.418809 0.410788 0.316242 Fe
0.516370 0.532739 0.316242 Fe
0.613931 0.654691 0.316242 Fe
0.711492 0.776642 0.316242 Fe
0.809053 0.898593 0.316242 Fe
0.906614 0.020544 0.316242 Fe
0.004175 0.142496 0.316242 Fe
0.101736 0.264447 0.316242 Fe
0.199297 0.386398 0.316242 Fe
0.296858 0.508349 0.316242 Fe
0.394419 0.630300 0.316242 Fe
0.491979 0.752252 0.316242 Fe
0.589540 0.874203 0.316242 Fe
0.687101 0.996154 0.316242 Fe
0.784662 0.118105 0.316242 Fe
0.882223 0.240057 0.316242 Fe
0.979784 0.362008 0.316242 Fe
0.077345 0.483959 0.316242 Fe
0.174906 0.605910 0.316242 Fe
0.272467 0.727861 0.316242 Fe
0.370028 0.849813 0.316242 Fe
0.467589 0.971764 0.316242 Fe
0.565150 0.093715 0.316242 Fe
0.662711 0.215666 0.316242 Fe
0.760272 0.337618 0.316242 Fe
0.857833 0.459569 0.316242 Fe
0.955394 0.581520 0.316242 Fe
0.052955 0.703471 0.316242 Fe
0.150516 0.825422 0.316242 Fe
0.248077 0.947374 0.316242 Fe
0.345638 0.069325 0.316242 Fe
0.443199 0.191276 0.316242 Fe
0.540760 0.313227 0.316242 Fe
0.638321 0.435178 0.316242 Fe
0.735882 0.557130 0.316242 Fe
0.833443 0.679081 0.316242 Fe
0.931004 0.801032 0.316242 Fe
0.028565 0.922983 0.316242 Fe
0.016370 0.032739 0.294817 Fe
0.113931 0.154691 0.294817 Fe
0.211492 0.276642 0.294817 Fe
0.309053 0.398593 0.294817 Fe
0.406614 0.520544 0.294817 Fe
0.504175 0.642496 0.294817 Fe
0.894419 0.130300 0.294817 Fe
0.991979 0.252252 0.294817 Fe
0.089540 0.374203 0.294817 Fe
0.187101 0.496154 0.294817 Fe
0.284662 0.618105 0.294817 Fe
0.674906 0.105910 0.294817 Fe
0.772467 0.227861 0.294817 Fe
0.870028 0.349813 0.294817 Fe
0.967589 0.471764 0.294817 Fe
0.065150 0.593715 0.294817 Fe
0.455394 0.081520 0.294817 Fe
0.552955 0.203471 0.294817 Fe
0.650516 0.325422 0.294817 Fe
0.748077 0.447374 0.294817 Fe
0.845638 0.569325 0.294817 Fe
0.235882 0.057130 0.294817 Fe
0.333443 0.179081 0.294817 Fe
0.431004 0.301032 0.294817 Fe
0.528565 0.422983 0.294817 Fe
0.626126 0.544935 0.294817 Fe
0.723687 0.666886 0.294817 Fe
0.601736 0.764447 0.294817 Fe
0.699297 0.886398 0.294817 Fe
0.796858 0.008349 0.294817 Fe
0.382223 0.740057 0.294817 Fe
0.479784 0.862008 0.294817 Fe
0.577345 0.983959 0.294817 Fe
0.162711 0.715666 0.294817 Fe
0.260272 0.837618 0.294817 Fe
0.357833 0.959569 0.294817 Fe
0.943199 0.691276 0.294817 Fe
0.040760 0.813227 0.294817 Fe
0.138321 0.935178 0.294817 Fe
0.821248 0.788837 0.294817 Fe
0.918809 0.910788 0.294817 Fe
0.875000 0.000000 0.266409 Sb
0.625000 0.250000 0.266409 Sb
0.375000 0.500000 0.266409 Sb
0.375000 0.000000 0.266409 Sb
0.125000 0.250000 0.266409 Sb
0.875000 0.500000 0.266409 Sb
0.625000 0.000000 0.266409 Sb
0.375000 0.250000 0.266409 Sb
0.125000 0.500000 0.266409 Sb
0.125000 0.000000 0.266409 Sb
0.875000 0.250000 0.266409 Sb
0.625000 0.500000 0.266409 Sb
0.125000 0.750000 0.266409 Sb
0.625000 0.750000 0.266409 Sb
0.875000 0.750000 0.266409 Sb
0.375000 0.750000 0.266409 Sb
0.750000 0.125000 0.217971 Sb
0.500000 0.375000 0.217971 Sb
0.250000 0.625000 0.217971 Sb
0.250000 0.125000 0.217971 Sb
0.000000 0.375000 0.217971 Sb
0.750000 0.625000 0.217971 Sb
0.500000 0.125000 0.217971 Sb
0.250000 0.375000 0.217971 Sb
0.000000 0.625000 0.217971 Sb
0.000000 0.125000 0.217971 Sb
0.750000 0.375000 0.217971 Sb
0.500000 0.625000 0.217971 Sb
0.000000 0.875000 0.217971 Sb
0.500000 0.875000 0.217971 Sb
0.750000 0.875000 0.217971 Sb
0.250000 0.875000 0.217971 Sb
0.875000 0.000000 0.169533 Sb
0.625000 0.250000 0.169533 Sb
0.375000 0.500000 0.169533 Sb
0.375000 0.000000 0.169533 Sb
0.125000 0.250000 0.169533 Sb
0.875000 0.500000 0.169533 Sb
0.625000 0.000000 0.169533 Sb
0.375000 0.250000 0.169533 Sb
0.125000 0.500000 0.169533 Sb
0.125000 0.000000 0.169533 Sb
0.875000 0.250000 0.169533 Sb
0.625000 0.500000 0.169533 Sb
0.125000 0.750000 0.169533 Sb
0.625000 0.750000 0.169533 Sb
0.875000 0.750000 0.169533 Sb
0.375000 0.750000 0.169533 Sb
0.750000 0.125000 0.121095 Sb
0.500000 0.375000 0.121095 Sb
0.250000 0.625000 0.121095 Sb
0.250000 0.125000 0.121095 Sb
0.000000 0.375000 0.121095 Sb
0.750000 0.625000 0.121095 Sb
0.500000 0.125000 0.121095 Sb
0.250000 0.375000 0.121095 Sb
0.000000 0.625000 0.121095 Sb
0.000000 0.125000 0.121095 Sb
0.750000 0.375000 0.121095 Sb
0.500000 0.625000 0.121095 Sb
0.000000 0.875000 0.121095 Sb
0.500000 0.875000 0.121095 Sb
0.750000 0.875000 0.121095 Sb
0.250000 0.875000 0.121095 Sb
0.875000 0.000000 0.072657 Sb
0.625000 0.250000 0.072657 Sb
0.375000 0.500000 0.072657 Sb
0.375000 0.000000 0.072657 Sb
0.125000 0.250000 0.072657 Sb
0.875000 0.500000 0.072657 Sb
0.625000 0.000000 0.072657 Sb
0.375000 0.250000 0.072657 Sb
0.125000 0.500000 0.072657 Sb
0.125000 0.000000 0.072657 Sb
0.875000 0.250000 0.072657 Sb
0.625000 0.500000 0.072657 Sb
0.125000 0.750000 0.072657 Sb
0.625000 0.750000 0.072657 Sb
0.875000 0.750000 0.072657 Sb
0.375000 0.750000 0.072657 Sb
0.937955 0.065543 0.039938 H
0.687955 0.315552 0.039938 H
0.437955 0.565550 0.039938 H
0.437955 0.065551 0.039938 H
0.187955 0.315548 0.039938 H
0.055902 0.911612 0.017803 H
0.555902 0.411612 0.017803 H
0.555902 0.911612 0.017803 H
0.305902 0.161612 0.017803 H
0.805902 0.161612 0.017803 H
