In25 Fe78 Sb25 H10
1.0
0.000000 0.000000 10.244831
-0.000000 10.244831 0.000000
-66.883350 -0.000000 0.000000
In Fe Sb H
25 78 25 10
direct
0.000000 0.000000 0.242190 In
0.400000 0.200000 0.242190 In
0.800000 0.400000 0.242190 In
0.200000 0.600000 0.242190 In
0.600000 0.800000 0.242190 In
0.700000 0.100000 0.193752 In
0.100000 0.300000 0.193752 In
0.500000 0.500000 0.193752 In
0.900000 0.700000 0.193752 In
0.300000 0.900000 0.193752 In
0.000000 0.000000 0.145314 In
0.400000 0.200000 0.145314 In
0.800000 0.400000 0.145314 In
0.200000 0.600000 0.145314 In
0.600000 0.800000 0.145314 In
0.700000 0.100000 0.096876 In
0.100000 0.300000 0.096876 In
0.500000 0.500000 0.096876 In
0.900000 0.700000 0.096876 In
0.300000 0.900000 0.096876 In
0.000000 0.000000 0.048438 In
0.400000 0.200000 0.048438 In
0.800000 0.400000 0.048438 In
0.200000 0.600000 0.048438 In
0.600000 0.800000 0.048438 In
0.990822 0.250874 0.401944 Fe
0.760052 0.404720 0.401944 Fe
0.529283 0.558566 0.401944 Fe
0.298514 0.712412 0.401944 Fe
0.067745 0.866258 0.401944 Fe
0.836975 0.020105 0.401944 Fe
0.606206 0.173951 0.401944 Fe
0.375437 0.327797 0.401944 Fe
0.144668 0.481643 0.401944 Fe
0.913898 0.635489 0.401944 Fe
0.683129 0.789335 0.401944 Fe
0.452360 0.943182 0.401944 Fe
0.221591 0.097028 0.401944 Fe
0.029283 0.058566 0.380518 Fe
0.798514 0.212412 0.380518 Fe
0.567745 0.366258 0.380518 Fe
0.336975 0.520105 0.380518 Fe
0.106206 0.673951 0.380518 Fe
0.413898 0.135489 0.380518 Fe
0.183129 0.289335 0.380518 Fe
0.952360 0.443182 0.380518 Fe
0.721591 0.597028 0.380518 Fe
0.875437 0.827797 0.380518 Fe
0.644668 0.981643 0.380518 Fe
0.490822 0.750874 0.380518 Fe
0.260052 0.904720 0.380518 Fe
0.990822 0.250874 0.359093 Fe
0.760052 0.404720 0.359093 Fe
0.529283 0.558566 0.359093 Fe
0.298514 0.712412 0.359093 Fe
0.067745 0.866258 0.359093 Fe
0.836975 0.020105 0.359093 Fe
0.606206 0.173951 0.359093 Fe
0.375437 0.327797 0.359093 Fe
0.144668 0.481643 0.359093 Fe
0.913898 0.635489 0.359093 Fe
0.683129 0.789335 0.359093 Fe
0.452360 0.943182 0.359093 Fe
0.221591 0.097028 0.359093 Fe
0.029283 0.058566 0.337668 Fe
0.798514 0.212412 0.337668 Fe
0.567745 0.366258 0.337668 Fe
0.336975 0.520105 0.337668 Fe
0.106206 0.673951 0.337668 Fe
0.413898 0.135489 0.337668 Fe
0.183129 0.289335 0.337668 Fe
0.952360 0.443182 0.337668 Fe
0.721591 0.597028 0.337668 Fe
0.875437 0.827797 0.337668 Fe
0.644668 0.981643 0.337668 Fe
0.490822 0.750874 0.337668 Fe
0.260052 0.904720 0.337668 Fe
0.990822 0.250874 0.316242 Fe
0.760052 0.404720 0.316242 Fe
0.529283 0.558566 0.316242 Fe
0.606206 0.173951 0.316242 Fe
0.375437 0.327797 0.316242 Fe
0.144668 0.481643 0.316242 Fe
0.913898 0.635489 0.316242 Fe
0.221591 0.097028 0.316242 Fe
0.298514 0.712412 0.316242 Fe
0.067745 0.866258 0.316242 Fe
0.836975 0.020105 0.316242 Fe
0.683129 0.789335 0.316242 Fe
0.452360 0.943182 0.316242 Fe
0.029283 0.058566 0.294817 Fe
0.798514 0.212412 0.294817 Fe
0.567745 0.366258 0.294817 Fe
0.336975 0.520105 0.294817 Fe
0.106206 0.673951 0.294817 Fe
0.875437 0.827797 0.294817 Fe
0.644668 0.981643 0.294817 Fe
0.413898 0.135489 0.294817 Fe
0.183129 0.289335 0.294817 Fe
0.952360 0.443182 0.294817 Fe
0.721591 0.597028 0.294817 Fe
0.490822 0.750874 0.294817 Fe
0.260052 0.904720 0.294817 Fe
0.800000 0.900000 0.266409 Sb
0.200000 0.100000 0.266409 Sb
0.600000 0.300000 0.266409 Sb
0.000000 0.500000 0.266409 Sb
0.400000 0.700000 0.266409 Sb
0.500000 0.000000 0.217971 Sb
0.900000 0.200000 0.217971 Sb
0.300000 0.400000 0.217971 Sb
0.700000 0.600000 0.217971 Sb
0.100000 0.800000 0.217971 Sb
0.200000 0.100000 0.169533 Sb
0.600000 0.300000 0.169533 Sb
0.000000 0.500000 0.169533 Sb
0.800000 0.900000 0.169533 Sb
0.400000 0.700000 0.169533 Sb
0.500000 0.000000 0.121095 Sb
0.900000 0.200000 0.121095 Sb
0.300000 0.400000 0.121095 Sb
0.700000 0.600000 0.121095 Sb
0.100000 0.800000 0.121095 Sb
0.200000 0.100000 0.072657 Sb
0.600000 0.300000 0.072657 Sb
0.000000 0.500000 0.072657 Sb
0.800000 0.900000 0.072657 Sb
0.400000 0.700000 0.072657 Sb
0.944505 0.110990 0.030479 H
0.055495 0.889010 0.030479 H
0.655495 0.689010 0.030477 H
0.344505 0.310990 0.030477 H
0.144505 0.710990 0.030477 H
0.855495 0.289010 0.030477 H
0.255495 0.489010 0.030477 H
0.744505 0.510990 0.030477 H
0.455495 0.089010 0.030476 H
0.544505 0.910990 0.030476 H
