In30 Fe91 Sb35
1.0
10.244831 -0.000000 -0.000000
-0.000000 10.244831 -0.000000
-0.000000 -0.000000 31.806200
In Fe Sb
30 91 35
Selective dynamics
direct
0.000000 0.000000 0.152786 F F T In
0.400000 0.200000 0.152786 F F T In
0.800000 0.400000 0.152786 F F T In
0.200000 0.600000 0.152786 F F T In
0.600000 0.800000 0.152786 F F T In
0.700000 0.100000 0.050929 F F T In
0.100000 0.300000 0.050929 F F T In
0.500000 0.500000 0.050929 F F T In
0.900000 0.700000 0.050929 F F T In
0.300000 0.900000 0.050929 F F T In
0.000000 0.000000 0.356501 F F F In
0.400000 0.200000 0.356501 F F F In
0.800000 0.400000 0.356501 F F F In
0.200000 0.600000 0.356501 F F F In
0.600000 0.800000 0.356501 F F F In
0.700000 0.100000 0.254644 F F F In
0.100000 0.300000 0.254644 F F F In
0.500000 0.500000 0.254644 F F F In
0.900000 0.700000 0.254644 F F F In
0.300000 0.900000 0.254644 F F F In
0.000000 0.000000 0.560216 F F T In
0.400000 0.200000 0.560216 F F T In
0.800000 0.400000 0.560216 F F T In
0.200000 0.600000 0.560216 F F T In
0.600000 0.800000 0.560216 F F T In
0.700000 0.100000 0.458359 F F T In
0.100000 0.300000 0.458359 F F T In
0.500000 0.500000 0.458359 F F T In
0.900000 0.700000 0.458359 F F T In
0.300000 0.900000 0.458359 F F T In
0.029283 0.058566 0.670882 F F T Fe
0.260052 0.212412 0.670882 F F T Fe
0.490822 0.366258 0.670882 F F T Fe
0.721591 0.520105 0.670882 F F T Fe
0.952360 0.673951 0.670882 F F T Fe
0.183129 0.827797 0.670882 F F T Fe
0.413898 0.981643 0.670882 F F T Fe
0.644668 0.135489 0.670882 F F T Fe
0.875437 0.289335 0.670882 F F T Fe
0.106206 0.443182 0.670882 F F T Fe
0.336975 0.597028 0.670882 F F T Fe
0.567745 0.750874 0.670882 F F T Fe
0.798514 0.904720 0.670882 F F T Fe
0.067745 0.250874 0.715779 F F T Fe
0.298514 0.404720 0.715779 F F T Fe
0.529283 0.558566 0.715779 F F T Fe
0.760052 0.712412 0.715779 F F T Fe
0.990822 0.866258 0.715779 F F T Fe
0.221591 0.020105 0.715779 F F T Fe
0.452360 0.173951 0.715779 F F T Fe
0.683129 0.327797 0.715779 F F T Fe
0.913898 0.481643 0.715779 F F T Fe
0.144668 0.635489 0.715779 F F T Fe
0.375437 0.789335 0.715779 F F T Fe
0.606206 0.943182 0.715779 F F T Fe
0.836975 0.097028 0.715779 F F T Fe
0.029283 0.058566 0.760676 F F T Fe
0.260052 0.212412 0.760676 F F T Fe
0.490822 0.366258 0.760676 F F T Fe
0.721591 0.520105 0.760676 F F T Fe
0.952360 0.673951 0.760676 F F T Fe
0.183129 0.827797 0.760676 F F T Fe
0.413898 0.981643 0.760676 F F T Fe
0.644668 0.135489 0.760676 F F T Fe
0.875437 0.289335 0.760676 F F T Fe
0.106206 0.443182 0.760676 F F T Fe
0.336975 0.597028 0.760676 F F T Fe
0.567745 0.750874 0.760676 F F T Fe
0.798514 0.904720 0.760676 F F T Fe
0.067745 0.250874 0.805572 F F F Fe
0.298514 0.404720 0.805572 F F F Fe
0.529283 0.558566 0.805572 F F F Fe
0.760052 0.712412 0.805572 F F F Fe
0.990822 0.866258 0.805572 F F F Fe
0.221591 0.020105 0.805572 F F F Fe
0.452360 0.173951 0.805572 F F F Fe
0.683129 0.327797 0.805572 F F F Fe
0.913898 0.481643 0.805572 F F F Fe
0.144668 0.635489 0.805572 F F F Fe
0.375437 0.789335 0.805572 F F F Fe
0.606206 0.943182 0.805572 F F F Fe
0.836975 0.097028 0.805572 F F F Fe
0.029283 0.058566 0.850469 F F T Fe
0.260052 0.212412 0.850469 F F T Fe
0.490822 0.366258 0.850469 F F T Fe
0.721591 0.520105 0.850469 F F T Fe
0.952360 0.673951 0.850469 F F T Fe
0.183129 0.827797 0.850469 F F T Fe
0.413898 0.981643 0.850469 F F T Fe
0.644668 0.135489 0.850469 F F T Fe
0.875437 0.289335 0.850469 F F T Fe
0.106206 0.443182 0.850469 F F T Fe
0.336975 0.597028 0.850469 F F T Fe
0.567745 0.750874 0.850469 F F T Fe
0.798514 0.904720 0.850469 F F T Fe
0.067745 0.250874 0.895366 F F T Fe
0.298514 0.404720 0.895366 F F T Fe
0.529283 0.558566 0.895366 F F T Fe
0.760052 0.712412 0.895366 F F T Fe
0.990822 0.866258 0.895366 F F T Fe
0.221591 0.020105 0.895366 F F T Fe
0.452360 0.173951 0.895366 F F T Fe
0.683129 0.327797 0.895366 F F T Fe
0.913898 0.481643 0.895366 F F T Fe
0.144668 0.635489 0.895366 F F T Fe
0.375437 0.789335 0.895366 F F T Fe
0.606206 0.943182 0.895366 F F T Fe
0.836975 0.097028 0.895366 F F T Fe
0.029283 0.058566 0.940263 F F T Fe
0.260052 0.212412 0.940263 F F T Fe
0.490822 0.366258 0.940263 F F T Fe
0.721591 0.520105 0.940263 F F T Fe
0.952360 0.673951 0.940263 F F T Fe
0.183129 0.827797 0.940263 F F T Fe
0.413898 0.981643 0.940263 F F T Fe
0.644668 0.135489 0.940263 F F T Fe
0.875437 0.289335 0.940263 F F T Fe
0.106206 0.443182 0.940263 F F T Fe
0.336975 0.597028 0.940263 F F T Fe
0.567745 0.750874 0.940263 F F T Fe
0.798514 0.904720 0.940263 F F T Fe
0.900000 0.200000 0.000000 F F T Sb
0.300000 0.400000 0.000000 F F T Sb
0.700000 0.600000 0.000000 F F T Sb
0.100000 0.800000 0.000000 F F T Sb
0.500000 0.000000 0.000000 F F T Sb
0.900000 0.200000 0.203715 F F T Sb
0.300000 0.400000 0.203715 F F T Sb
0.700000 0.600000 0.203715 F F T Sb
0.100000 0.800000 0.203715 F F T Sb
0.500000 0.000000 0.203715 F F T Sb
0.600000 0.300000 0.101857 F F F Sb
0.000000 0.500000 0.101857 F F F Sb
0.400000 0.700000 0.101857 F F F Sb
0.800000 0.900000 0.101857 F F F Sb
0.200000 0.100000 0.101857 F F F Sb
0.900000 0.200000 0.407430 F F F Sb
0.300000 0.400000 0.407430 F F F Sb
0.700000 0.600000 0.407430 F F F Sb
0.100000 0.800000 0.407430 F F F Sb
0.500000 0.000000 0.407430 F F F Sb
0.600000 0.300000 0.305572 F F F Sb
0.000000 0.500000 0.305572 F F F Sb
0.400000 0.700000 0.305572 F F F Sb
0.800000 0.900000 0.305572 F F F Sb
0.200000 0.100000 0.305572 F F F Sb
0.900000 0.200000 0.611145 F F T Sb
0.300000 0.400000 0.611145 F F T Sb
0.700000 0.600000 0.611145 F F T Sb
0.100000 0.800000 0.611145 F F T Sb
0.500000 0.000000 0.611145 F F T Sb
0.600000 0.300000 0.509287 F F T Sb
0.000000 0.500000 0.509287 F F T Sb
0.400000 0.700000 0.509287 F F T Sb
0.800000 0.900000 0.509287 F F T Sb
0.200000 0.100000 0.509287 F F T Sb
