Al90 In40 As40
1.0
0.000000 4.038933 0.000000
66.902585 0.000000 0.000000
0.000000 -2.019467 -18.175200
Al In As
90 40 40
direct
0.000000 0.574561 0.000000 Al
0.666667 0.574561 0.333333 Al
0.333333 0.574561 0.666667 Al
0.333333 0.574561 0.000000 Al
0.000000 0.574561 0.333333 Al
0.666667 0.574561 0.666667 Al
0.666667 0.574561 1.000000 Al
0.333333 0.574561 0.333333 Al
1.000000 0.574561 0.666667 Al
0.833333 0.604746 0.666667 Al
0.500000 0.604746 0.000000 Al
0.166667 0.604746 0.333333 Al
0.166667 0.604746 0.666667 Al
0.833333 0.604746 0.000000 Al
0.500000 0.604746 0.333333 Al
0.500000 0.604746 0.666667 Al
0.166667 0.604746 1.000000 Al
0.833333 0.604746 0.333333 Al
0.000000 0.634931 0.000000 Al
0.666667 0.634931 0.333333 Al
0.333333 0.634931 0.666667 Al
0.333333 0.634931 0.000000 Al
0.000000 0.634931 0.333333 Al
0.666667 0.634931 0.666667 Al
0.666667 0.634931 1.000000 Al
0.333333 0.634931 0.333333 Al
1.000000 0.634931 0.666667 Al
0.833333 0.665117 0.666667 Al
0.500000 0.665117 0.000000 Al
0.166667 0.665117 0.333333 Al
0.166667 0.665117 0.666667 Al
0.833333 0.665117 0.000000 Al
0.500000 0.665117 0.333333 Al
0.500000 0.665117 0.666667 Al
0.166667 0.665117 1.000000 Al
0.833333 0.665117 0.333333 Al
0.000000 0.695302 0.000000 Al
0.666667 0.695302 0.333333 Al
0.333333 0.695302 0.666667 Al
0.333333 0.695302 0.000000 Al
0.000000 0.695302 0.333333 Al
0.666667 0.695302 0.666667 Al
0.666667 0.695302 1.000000 Al
0.333333 0.695302 0.333333 Al
1.000000 0.695302 0.666667 Al
0.833333 0.725487 0.666667 Al
0.500000 0.725487 0.000000 Al
0.166667 0.725487 0.333333 Al
0.166667 0.725487 0.666667 Al
0.833333 0.725487 0.000000 Al
0.500000 0.725487 0.333333 Al
0.500000 0.725487 0.666667 Al
0.166667 0.725487 1.000000 Al
0.833333 0.725487 0.333333 Al
0.000000 0.755672 0.000000 Al
0.666667 0.755672 0.333333 Al
0.333333 0.755672 0.666667 Al
0.333333 0.755672 0.000000 Al
0.000000 0.755672 0.333333 Al
0.666667 0.755672 0.666667 Al
0.666667 0.755672 1.000000 Al
0.333333 0.755672 0.333333 Al
1.000000 0.755672 0.666667 Al
0.833333 0.785857 0.666667 Al
0.500000 0.785857 0.000000 Al
0.166667 0.785857 0.333333 Al
0.166667 0.785857 0.666667 Al
0.833333 0.785857 0.000000 Al
0.500000 0.785857 0.333333 Al
0.500000 0.785857 0.666667 Al
0.166667 0.785857 1.000000 Al
0.833333 0.785857 0.333333 Al
0.000000 0.816042 0.000000 Al
0.666667 0.816042 0.333333 Al
0.333333 0.816042 0.666667 Al
0.333333 0.816042 0.000000 Al
0.000000 0.816042 0.333333 Al
0.666667 0.816042 0.666667 Al
0.666667 0.816042 1.000000 Al
0.333333 0.816042 0.333333 Al
1.000000 0.816042 0.666667 Al
0.833333 0.846228 0.666667 Al
0.500000 0.846228 0.000000 Al
0.166667 0.846228 0.333333 Al
0.166667 0.846228 0.666667 Al
0.833333 0.846228 0.000000 Al
0.500000 0.846228 0.333333 Al
0.500000 0.846228 0.666667 Al
0.166667 0.846228 1.000000 Al
0.833333 0.846228 0.333333 Al
0.000000 0.167061 0.000000 In
0.500000 0.167061 0.000000 In
0.750000 0.212339 0.500000 In
0.250000 0.212339 0.500000 In
0.250000 0.212339 0.000000 In
0.750000 0.212339 0.000000 In
0.000000 0.167061 0.500000 In
0.500000 0.167061 0.500000 In
0.000000 0.257617 0.000000 In
0.500000 0.257617 0.000000 In
0.750000 0.302895 0.500000 In
0.250000 0.302895 0.500000 In
0.250000 0.302895 0.000000 In
0.750000 0.302895 0.000000 In
0.000000 0.257617 0.500000 In
0.500000 0.257617 0.500000 In
0.000000 0.348172 0.000000 In
0.500000 0.348172 0.000000 In
0.750000 0.393450 0.500000 In
0.250000 0.393450 0.500000 In
0.250000 0.393450 0.000000 In
0.750000 0.393450 0.000000 In
0.000000 0.348172 0.500000 In
0.500000 0.348172 0.500000 In
0.000000 0.438728 0.000000 In
0.500000 0.438728 0.000000 In
0.750000 0.484006 0.500000 In
0.250000 0.484006 0.500000 In
0.250000 0.484006 0.000000 In
0.750000 0.484006 0.000000 In
0.000000 0.438728 0.500000 In
0.500000 0.438728 0.500000 In
0.000000 0.529283 0.000000 In
0.500000 0.529283 0.000000 In
0.750000 0.574561 0.500000 In
0.250000 0.574561 0.500000 In
0.250000 0.574561 0.000000 In
0.750000 0.574561 0.000000 In
0.000000 0.529283 0.500000 In
0.500000 0.529283 0.500000 In
0.000000 0.189700 0.750000 As
0.500000 0.189700 0.750000 As
0.750000 0.144422 0.250000 As
0.250000 0.144422 0.250000 As
0.250000 0.144422 0.750000 As
0.750000 0.144422 0.750000 As
1.000000 0.189700 0.250000 As
0.500000 0.189700 0.250000 As
0.000000 0.280256 0.750000 As
0.500000 0.280256 0.750000 As
0.750000 0.234978 0.250000 As
0.250000 0.234978 0.250000 As
0.250000 0.234978 0.750000 As
0.750000 0.234978 0.750000 As
1.000000 0.280256 0.250000 As
0.500000 0.280256 0.250000 As
0.000000 0.370811 0.750000 As
0.500000 0.370811 0.750000 As
0.750000 0.325533 0.250000 As
0.250000 0.325533 0.250000 As
0.250000 0.325533 0.750000 As
0.750000 0.325533 0.750000 As
1.000000 0.370811 0.250000 As
0.500000 0.370811 0.250000 As
0.000000 0.461367 0.750000 As
0.500000 0.461367 0.750000 As
0.750000 0.416089 0.250000 As
0.250000 0.416089 0.250000 As
0.250000 0.416089 0.750000 As
0.750000 0.416089 0.750000 As
1.000000 0.461367 0.250000 As
0.500000 0.461367 0.250000 As
0.000000 0.551922 0.750000 As
0.500000 0.551922 0.750000 As
0.750000 0.506644 0.250000 As
0.250000 0.506644 0.250000 As
0.250000 0.506644 0.750000 As
0.750000 0.506644 0.750000 As
1.000000 0.551922 0.250000 As
0.500000 0.551922 0.250000 As
