Al90 In40 As40
1.0
8.567871 0.000000 0.000000
0.000000 8.567871 0.000000
0.000000 0.000000 66.902585
Al In As
90 40 40
direct
0.000000 0.000000 0.425439 Al
0.666667 0.000000 0.425439 Al
0.333333 0.000000 0.425439 Al
0.000000 0.333333 0.425439 Al
0.666667 0.333333 0.425439 Al
0.333333 0.333333 0.425439 Al
0.000000 0.666667 0.425439 Al
0.666667 0.666667 0.425439 Al
0.333333 0.666667 0.425439 Al
0.833333 0.000000 0.395254 Al
0.500000 0.000000 0.395254 Al
0.166667 0.000000 0.395254 Al
0.833333 0.333333 0.395254 Al
0.500000 0.333333 0.395254 Al
0.166667 0.333333 0.395254 Al
0.833333 0.666667 0.395254 Al
0.500000 0.666667 0.395254 Al
0.166667 0.666667 0.395254 Al
0.000000 0.000000 0.365069 Al
0.666667 0.000000 0.365069 Al
0.333333 0.000000 0.365069 Al
0.000000 0.333333 0.365069 Al
0.666667 0.333333 0.365069 Al
0.333333 0.333333 0.365069 Al
0.000000 0.666667 0.365069 Al
0.666667 0.666667 0.365069 Al
0.333333 0.666667 0.365069 Al
0.833333 0.000000 0.334883 Al
0.500000 0.000000 0.334883 Al
0.166667 0.000000 0.334883 Al
0.833333 0.333333 0.334883 Al
0.500000 0.333333 0.334883 Al
0.166667 0.333333 0.334883 Al
0.833333 0.666667 0.334883 Al
0.500000 0.666667 0.334883 Al
0.166667 0.666667 0.334883 Al
0.000000 0.000000 0.304698 Al
0.666667 0.000000 0.304698 Al
0.333333 0.000000 0.304698 Al
0.000000 0.333333 0.304698 Al
0.666667 0.333333 0.304698 Al
0.333333 0.333333 0.304698 Al
0.000000 0.666667 0.304698 Al
0.666667 0.666667 0.304698 Al
0.333333 0.666667 0.304698 Al
0.833333 0.000000 0.274513 Al
0.500000 0.000000 0.274513 Al
0.166667 0.000000 0.274513 Al
0.833333 0.333333 0.274513 Al
0.500000 0.333333 0.274513 Al
0.166667 0.333333 0.274513 Al
0.833333 0.666667 0.274513 Al
0.500000 0.666667 0.274513 Al
0.166667 0.666667 0.274513 Al
0.000000 0.000000 0.244328 Al
0.666667 0.000000 0.244328 Al
0.333333 0.000000 0.244328 Al
0.000000 0.333333 0.244328 Al
0.666667 0.333333 0.244328 Al
0.333333 0.333333 0.244328 Al
0.000000 0.666667 0.244328 Al
0.666667 0.666667 0.244328 Al
0.333333 0.666667 0.244328 Al
0.833333 0.000000 0.214143 Al
0.500000 0.000000 0.214143 Al
0.166667 0.000000 0.214143 Al
0.833333 0.333333 0.214143 Al
0.500000 0.333333 0.214143 Al
0.166667 0.333333 0.214143 Al
0.833333 0.666667 0.214143 Al
0.500000 0.666667 0.214143 Al
0.166667 0.666667 0.214143 Al
0.000000 0.000000 0.183958 Al
0.666667 0.000000 0.183958 Al
0.333333 0.000000 0.183958 Al
0.000000 0.333333 0.183958 Al
0.666667 0.333333 0.183958 Al
0.333333 0.333333 0.183958 Al
0.000000 0.666667 0.183958 Al
0.666667 0.666667 0.183958 Al
0.333333 0.666667 0.183958 Al
0.833333 0.000000 0.153772 Al
0.500000 0.000000 0.153772 Al
0.166667 0.000000 0.153772 Al
0.833333 0.333333 0.153772 Al
0.500000 0.333333 0.153772 Al
0.166667 0.333333 0.153772 Al
0.833333 0.666667 0.153772 Al
0.500000 0.666667 0.153772 Al
0.166667 0.666667 0.153772 Al
0.000000 0.000000 0.832939 In
0.500000 0.000000 0.832939 In
0.750000 0.000000 0.787661 In
0.250000 0.000000 0.787661 In
0.250000 0.500000 0.787661 In
0.750000 0.500000 0.787661 In
0.000000 0.500000 0.832939 In
0.500000 0.500000 0.832939 In
0.000000 0.000000 0.742383 In
0.500000 0.000000 0.742383 In
0.750000 0.000000 0.697105 In
0.250000 0.000000 0.697105 In
0.250000 0.500000 0.697105 In
0.750000 0.500000 0.697105 In
0.000000 0.500000 0.742383 In
0.500000 0.500000 0.742383 In
0.000000 0.000000 0.651828 In
0.500000 0.000000 0.651828 In
0.750000 0.000000 0.606550 In
0.250000 0.000000 0.606550 In
0.250000 0.500000 0.606550 In
0.750000 0.500000 0.606550 In
0.000000 0.500000 0.651828 In
0.500000 0.500000 0.651828 In
0.000000 0.000000 0.561272 In
0.500000 0.000000 0.561272 In
0.750000 0.000000 0.515994 In
0.250000 0.000000 0.515994 In
0.250000 0.500000 0.515994 In
0.750000 0.500000 0.515994 In
0.000000 0.500000 0.561272 In
0.500000 0.500000 0.561272 In
0.000000 0.000000 0.470717 In
0.500000 0.000000 0.470717 In
0.750000 0.000000 0.425439 In
0.250000 0.000000 0.425439 In
0.250000 0.500000 0.425439 In
0.750000 0.500000 0.425439 In
0.000000 0.500000 0.470717 In
0.500000 0.500000 0.470717 In
0.000000 0.750000 0.810300 As
0.500000 0.750000 0.810300 As
0.750000 0.750000 0.855578 As
0.250000 0.750000 0.855578 As
0.250000 0.250000 0.855578 As
0.750000 0.250000 0.855578 As
0.000000 0.250000 0.810300 As
0.500000 0.250000 0.810300 As
0.000000 0.750000 0.719744 As
0.500000 0.750000 0.719744 As
0.750000 0.750000 0.765022 As
0.250000 0.750000 0.765022 As
0.250000 0.250000 0.765022 As
0.750000 0.250000 0.765022 As
0.000000 0.250000 0.719744 As
0.500000 0.250000 0.719744 As
0.000000 0.750000 0.629189 As
0.500000 0.750000 0.629189 As
0.750000 0.750000 0.674467 As
0.250000 0.750000 0.674467 As
0.250000 0.250000 0.674467 As
0.750000 0.250000 0.674467 As
0.000000 0.250000 0.629189 As
0.500000 0.250000 0.629189 As
0.000000 0.750000 0.538633 As
0.500000 0.750000 0.538633 As
0.750000 0.750000 0.583911 As
0.250000 0.750000 0.583911 As
0.250000 0.250000 0.583911 As
0.750000 0.250000 0.583911 As
0.000000 0.250000 0.538633 As
0.500000 0.250000 0.538633 As
0.000000 0.750000 0.448078 As
0.500000 0.750000 0.448078 As
0.750000 0.750000 0.493356 As
0.250000 0.750000 0.493356 As
0.250000 0.250000 0.493356 As
0.750000 0.250000 0.493356 As
0.000000 0.250000 0.448078 As
0.500000 0.250000 0.448078 As
