Al200 In90 As90
1.0
0.000000 12.851807 0.000000
12.851807 0.000000 0.000000
0.000000 0.000000 -66.902585
Al In As
200 90 90
direct
0.000000 0.000000 0.574561 Al
0.900000 0.100000 0.574561 Al
0.800000 0.200000 0.574561 Al
0.700000 0.300000 0.574561 Al
0.600000 0.400000 0.574561 Al
0.500000 0.500000 0.574561 Al
0.400000 0.600000 0.574561 Al
0.300000 0.700000 0.574561 Al
0.200000 0.800000 0.574561 Al
0.100000 0.900000 0.574561 Al
0.950000 0.050000 0.604746 Al
0.850000 0.150000 0.604746 Al
0.750000 0.250000 0.604746 Al
0.650000 0.350000 0.604746 Al
0.550000 0.450000 0.604746 Al
0.450000 0.550000 0.604746 Al
0.350000 0.650000 0.604746 Al
0.250000 0.750000 0.604746 Al
0.150000 0.850000 0.604746 Al
0.050000 0.950000 0.604746 Al
0.850000 0.650000 0.604746 Al
0.750000 0.750000 0.604746 Al
0.650000 0.850000 0.604746 Al
0.550000 0.950000 0.604746 Al
0.450000 0.050000 0.604746 Al
0.350000 0.150000 0.604746 Al
0.250000 0.250000 0.604746 Al
0.150000 0.350000 0.604746 Al
0.050000 0.450000 0.604746 Al
0.950000 0.550000 0.604746 Al
0.800000 0.700000 0.574561 Al
0.700000 0.800000 0.574561 Al
0.600000 0.900000 0.574561 Al
0.500000 0.000000 0.574561 Al
0.400000 0.100000 0.574561 Al
0.300000 0.200000 0.574561 Al
0.200000 0.300000 0.574561 Al
0.100000 0.400000 0.574561 Al
0.000000 0.500000 0.574561 Al
0.900000 0.600000 0.574561 Al
0.000000 0.000000 0.634931 Al
0.900000 0.100000 0.634931 Al
0.800000 0.200000 0.634931 Al
0.700000 0.300000 0.634931 Al
0.600000 0.400000 0.634931 Al
0.500000 0.500000 0.634931 Al
0.400000 0.600000 0.634931 Al
0.300000 0.700000 0.634931 Al
0.200000 0.800000 0.634931 Al
0.100000 0.900000 0.634931 Al
0.950000 0.050000 0.665117 Al
0.850000 0.150000 0.665117 Al
0.750000 0.250000 0.665117 Al
0.650000 0.350000 0.665117 Al
0.550000 0.450000 0.665117 Al
0.450000 0.550000 0.665117 Al
0.350000 0.650000 0.665117 Al
0.250000 0.750000 0.665117 Al
0.150000 0.850000 0.665117 Al
0.050000 0.950000 0.665117 Al
0.850000 0.650000 0.665117 Al
0.750000 0.750000 0.665117 Al
0.650000 0.850000 0.665117 Al
0.550000 0.950000 0.665117 Al
0.450000 0.050000 0.665117 Al
0.350000 0.150000 0.665117 Al
0.250000 0.250000 0.665117 Al
0.150000 0.350000 0.665117 Al
0.050000 0.450000 0.665117 Al
0.950000 0.550000 0.665117 Al
0.800000 0.700000 0.634931 Al
0.700000 0.800000 0.634931 Al
0.600000 0.900000 0.634931 Al
0.500000 0.000000 0.634931 Al
0.400000 0.100000 0.634931 Al
0.300000 0.200000 0.634931 Al
0.200000 0.300000 0.634931 Al
0.100000 0.400000 0.634931 Al
0.000000 0.500000 0.634931 Al
0.900000 0.600000 0.634931 Al
0.000000 0.000000 0.695302 Al
0.900000 0.100000 0.695302 Al
0.800000 0.200000 0.695302 Al
0.700000 0.300000 0.695302 Al
0.600000 0.400000 0.695302 Al
0.500000 0.500000 0.695302 Al
0.400000 0.600000 0.695302 Al
0.300000 0.700000 0.695302 Al
0.200000 0.800000 0.695302 Al
0.100000 0.900000 0.695302 Al
0.950000 0.050000 0.725487 Al
0.850000 0.150000 0.725487 Al
0.750000 0.250000 0.725487 Al
0.650000 0.350000 0.725487 Al
0.550000 0.450000 0.725487 Al
0.450000 0.550000 0.725487 Al
0.350000 0.650000 0.725487 Al
0.250000 0.750000 0.725487 Al
0.150000 0.850000 0.725487 Al
0.050000 0.950000 0.725487 Al
0.850000 0.650000 0.725487 Al
0.750000 0.750000 0.725487 Al
0.650000 0.850000 0.725487 Al
0.550000 0.950000 0.725487 Al
0.450000 0.050000 0.725487 Al
0.350000 0.150000 0.725487 Al
0.250000 0.250000 0.725487 Al
0.150000 0.350000 0.725487 Al
0.050000 0.450000 0.725487 Al
0.950000 0.550000 0.725487 Al
0.800000 0.700000 0.695302 Al
0.700000 0.800000 0.695302 Al
0.600000 0.900000 0.695302 Al
0.500000 0.000000 0.695302 Al
0.400000 0.100000 0.695302 Al
0.300000 0.200000 0.695302 Al
0.200000 0.300000 0.695302 Al
0.100000 0.400000 0.695302 Al
0.000000 0.500000 0.695302 Al
0.900000 0.600000 0.695302 Al
0.000000 0.000000 0.755672 Al
0.900000 0.100000 0.755672 Al
0.800000 0.200000 0.755672 Al
0.700000 0.300000 0.755672 Al
0.600000 0.400000 0.755672 Al
0.500000 0.500000 0.755672 Al
0.400000 0.600000 0.755672 Al
0.300000 0.700000 0.755672 Al
0.200000 0.800000 0.755672 Al
0.100000 0.900000 0.755672 Al
0.950000 0.050000 0.785857 Al
0.850000 0.150000 0.785857 Al
0.750000 0.250000 0.785857 Al
0.650000 0.350000 0.785857 Al
0.550000 0.450000 0.785857 Al
0.450000 0.550000 0.785857 Al
0.350000 0.650000 0.785857 Al
0.250000 0.750000 0.785857 Al
0.150000 0.850000 0.785857 Al
0.050000 0.950000 0.785857 Al
0.850000 0.650000 0.785857 Al
0.750000 0.750000 0.785857 Al
0.650000 0.850000 0.785857 Al
0.550000 0.950000 0.785857 Al
0.450000 0.050000 0.785857 Al
0.350000 0.150000 0.785857 Al
0.250000 0.250000 0.785857 Al
0.150000 0.350000 0.785857 Al
0.050000 0.450000 0.785857 Al
0.950000 0.550000 0.785857 Al
0.800000 0.700000 0.755672 Al
0.700000 0.800000 0.755672 Al
0.600000 0.900000 0.755672 Al
0.500000 0.000000 0.755672 Al
0.400000 0.100000 0.755672 Al
0.300000 0.200000 0.755672 Al
0.200000 0.300000 0.755672 Al
0.100000 0.400000 0.755672 Al
0.000000 0.500000 0.755672 Al
0.900000 0.600000 0.755672 Al
0.000000 0.000000 0.816042 Al
0.900000 0.100000 0.816042 Al
0.800000 0.200000 0.816042 Al
0.700000 0.300000 0.816042 Al
0.600000 0.400000 0.816042 Al
0.500000 0.500000 0.816042 Al
0.400000 0.600000 0.816042 Al
0.300000 0.700000 0.816042 Al
0.200000 0.800000 0.816042 Al
0.100000 0.900000 0.816042 Al
0.950000 0.050000 0.846228 Al
0.850000 0.150000 0.846228 Al
0.750000 0.250000 0.846228 Al
0.650000 0.350000 0.846228 Al
0.550000 0.450000 0.846228 Al
0.450000 0.550000 0.846228 Al
0.350000 0.650000 0.846228 Al
0.250000 0.750000 0.846228 Al
0.150000 0.850000 0.846228 Al
0.050000 0.950000 0.846228 Al
0.850000 0.650000 0.846228 Al
0.750000 0.750000 0.846228 Al
0.650000 0.850000 0.846228 Al
0.550000 0.950000 0.846228 Al
0.450000 0.050000 0.846228 Al
0.350000 0.150000 0.846228 Al
0.250000 0.250000 0.846228 Al
0.150000 0.350000 0.846228 Al
0.050000 0.450000 0.846228 Al
0.950000 0.550000 0.846228 Al
0.800000 0.700000 0.816042 Al
0.700000 0.800000 0.816042 Al
0.600000 0.900000 0.816042 Al
0.500000 0.000000 0.816042 Al
0.400000 0.100000 0.816042 Al
0.300000 0.200000 0.816042 Al
0.200000 0.300000 0.816042 Al
0.100000 0.400000 0.816042 Al
0.000000 0.500000 0.816042 Al
0.900000 0.600000 0.816042 Al
0.000000 0.000000 0.167061 In
0.666667 0.333333 0.167061 In
0.333333 0.666667 0.167061 In
0.666667 0.666667 0.167061 In
0.333333 0.000000 0.167061 In
0.000000 0.333333 0.167061 In
0.333333 0.333333 0.167061 In
1.000000 0.666667 0.167061 In
0.666667 0.000000 0.167061 In
0.833333 0.166667 0.212339 In
0.500000 0.500000 0.212339 In
0.166667 0.833333 0.212339 In
0.500000 0.833333 0.212339 In
0.166667 0.166667 0.212339 In
0.833333 0.500000 0.212339 In
0.166667 0.500000 0.212339 In
0.833333 0.833333 0.212339 In
0.500000 0.166667 0.212339 In
0.000000 0.000000 0.257617 In
0.666667 0.333333 0.257617 In
0.333333 0.666667 0.257617 In
0.666667 0.666667 0.257617 In
0.333333 0.000000 0.257617 In
0.000000 0.333333 0.257617 In
0.333333 0.333333 0.257617 In
1.000000 0.666667 0.257617 In
0.666667 0.000000 0.257617 In
0.833333 0.166667 0.302895 In
0.500000 0.500000 0.302895 In
0.166667 0.833333 0.302895 In
0.500000 0.833333 0.302895 In
0.166667 0.166667 0.302895 In
0.833333 0.500000 0.302895 In
0.166667 0.500000 0.302895 In
0.833333 0.833333 0.302895 In
0.500000 0.166667 0.302895 In
0.000000 0.000000 0.348172 In
0.666667 0.333333 0.348172 In
0.333333 0.666667 0.348172 In
0.666667 0.666667 0.348172 In
0.333333 0.000000 0.348172 In
0.000000 0.333333 0.348172 In
0.333333 0.333333 0.348172 In
1.000000 0.666667 0.348172 In
0.666667 0.000000 0.348172 In
0.833333 0.166667 0.393450 In
0.500000 0.500000 0.393450 In
0.166667 0.833333 0.393450 In
0.500000 0.833333 0.393450 In
0.166667 0.166667 0.393450 In
0.833333 0.500000 0.393450 In
0.166667 0.500000 0.393450 In
0.833333 0.833333 0.393450 In
0.500000 0.166667 0.393450 In
0.000000 0.000000 0.438728 In
0.666667 0.333333 0.438728 In
0.333333 0.666667 0.438728 In
0.666667 0.666667 0.438728 In
0.333333 0.000000 0.438728 In
0.000000 0.333333 0.438728 In
0.333333 0.333333 0.438728 In
1.000000 0.666667 0.438728 In
0.666667 0.000000 0.438728 In
0.833333 0.166667 0.484006 In
0.500000 0.500000 0.484006 In
0.166667 0.833333 0.484006 In
0.500000 0.833333 0.484006 In
0.166667 0.166667 0.484006 In
0.833333 0.500000 0.484006 In
0.166667 0.500000 0.484006 In
0.833333 0.833333 0.484006 In
0.500000 0.166667 0.484006 In
0.000000 0.000000 0.529283 In
0.666667 0.333333 0.529283 In
0.333333 0.666667 0.529283 In
0.666667 0.666667 0.529283 In
0.333333 0.000000 0.529283 In
0.000000 0.333333 0.529283 In
0.333333 0.333333 0.529283 In
1.000000 0.666667 0.529283 In
0.666667 0.000000 0.529283 In
0.833333 0.166667 0.574561 In
0.500000 0.500000 0.574561 In
0.166667 0.833333 0.574561 In
0.500000 0.833333 0.574561 In
0.166667 0.166667 0.574561 In
0.833333 0.500000 0.574561 In
0.166667 0.500000 0.574561 In
0.833333 0.833333 0.574561 In
0.500000 0.166667 0.574561 In
0.833333 0.000000 0.189700 As
0.500000 0.333333 0.189700 As
0.166667 0.666667 0.189700 As
0.500000 0.666667 0.189700 As
0.166667 0.000000 0.189700 As
0.833333 0.333333 0.189700 As
0.166667 0.333333 0.189700 As
0.833333 0.666667 0.189700 As
0.500000 0.000000 0.189700 As
0.666667 0.166667 0.144422 As
0.333333 0.500000 0.144422 As
0.000000 0.833333 0.144422 As
0.333333 0.833333 0.144422 As
1.000000 0.166667 0.144422 As
0.666667 0.500000 0.144422 As
0.000000 0.500000 0.144422 As
0.666667 0.833333 0.144422 As
0.333333 0.166667 0.144422 As
0.833333 0.000000 0.280256 As
0.500000 0.333333 0.280256 As
0.166667 0.666667 0.280256 As
0.500000 0.666667 0.280256 As
0.166667 0.000000 0.280256 As
0.833333 0.333333 0.280256 As
0.166667 0.333333 0.280256 As
0.833333 0.666667 0.280256 As
0.500000 0.000000 0.280256 As
0.666667 0.166667 0.234978 As
0.333333 0.500000 0.234978 As
0.000000 0.833333 0.234978 As
0.333333 0.833333 0.234978 As
1.000000 0.166667 0.234978 As
0.666667 0.500000 0.234978 As
0.000000 0.500000 0.234978 As
0.666667 0.833333 0.234978 As
0.333333 0.166667 0.234978 As
0.833333 0.000000 0.370811 As
0.500000 0.333333 0.370811 As
0.166667 0.666667 0.370811 As
0.500000 0.666667 0.370811 As
0.166667 0.000000 0.370811 As
0.833333 0.333333 0.370811 As
0.166667 0.333333 0.370811 As
0.833333 0.666667 0.370811 As
0.500000 0.000000 0.370811 As
0.666667 0.166667 0.325533 As
0.333333 0.500000 0.325533 As
0.000000 0.833333 0.325533 As
0.333333 0.833333 0.325533 As
1.000000 0.166667 0.325533 As
0.666667 0.500000 0.325533 As
0.000000 0.500000 0.325533 As
0.666667 0.833333 0.325533 As
0.333333 0.166667 0.325533 As
0.833333 0.000000 0.461367 As
0.500000 0.333333 0.461367 As
0.166667 0.666667 0.461367 As
0.500000 0.666667 0.461367 As
0.166667 0.000000 0.461367 As
0.833333 0.333333 0.461367 As
0.166667 0.333333 0.461367 As
0.833333 0.666667 0.461367 As
0.500000 0.000000 0.461367 As
0.666667 0.166667 0.416089 As
0.333333 0.500000 0.416089 As
0.000000 0.833333 0.416089 As
0.333333 0.833333 0.416089 As
1.000000 0.166667 0.416089 As
0.666667 0.500000 0.416089 As
0.000000 0.500000 0.416089 As
0.666667 0.833333 0.416089 As
0.333333 0.166667 0.416089 As
0.833333 0.000000 0.551922 As
0.500000 0.333333 0.551922 As
0.166667 0.666667 0.551922 As
0.500000 0.666667 0.551922 As
0.166667 0.000000 0.551922 As
0.833333 0.333333 0.551922 As
0.166667 0.333333 0.551922 As
0.833333 0.666667 0.551922 As
0.500000 0.000000 0.551922 As
0.666667 0.166667 0.506644 As
0.333333 0.500000 0.506644 As
0.000000 0.833333 0.506644 As
0.333333 0.833333 0.506644 As
1.000000 0.166667 0.506644 As
0.666667 0.500000 0.506644 As
0.000000 0.500000 0.506644 As
0.666667 0.833333 0.506644 As
0.333333 0.166667 0.506644 As
