In15 Sb15 H20
1.0
0.000000 0.000000 10.244831
-0.000000 10.244831 0.000000
-54.666950 -0.000000 0.000000
In Sb H
15 15 20
Selective dynamics
direct
0.000000 0.000000 0.177787 F F F In
0.400000 0.200000 0.177787 F F F In
0.800000 0.400000 0.177787 F F F In
0.200000 0.600000 0.177787 F F F In
0.600000 0.800000 0.177787 F F F In
0.700000 0.100000 0.118525 F F F In
0.100000 0.300000 0.118525 F F F In
0.500000 0.500000 0.118525 F F F In
0.900000 0.700000 0.118525 F F F In
0.300000 0.900000 0.118525 F F F In
0.000000 0.000000 0.059262 F F F In
0.400000 0.200000 0.059262 F F F In
0.800000 0.400000 0.059262 F F F In
0.200000 0.600000 0.059262 F F F In
0.600000 0.800000 0.059262 F F F In
0.500000 0.000000 0.148156 F F F Sb
0.900000 0.200000 0.148156 F F F Sb
0.300000 0.400000 0.148156 F F F Sb
0.700000 0.600000 0.148156 F F F Sb
0.100000 0.800000 0.148156 F F F Sb
0.200000 0.100000 0.088894 F F F Sb
0.600000 0.300000 0.088894 F F F Sb
0.000000 0.500000 0.088894 F F F Sb
0.800000 0.900000 0.088894 F F F Sb
0.400000 0.700000 0.088894 F F F Sb
0.500000 0.000000 0.029631 F F F Sb
0.900000 0.200000 0.029631 F F F Sb
0.300000 0.400000 0.029631 F F F Sb
0.700000 0.600000 0.029631 F F F Sb
0.100000 0.800000 0.029631 F F F Sb
0.390935 0.945467 0.013473 F F T H
0.790935 0.145467 0.013473 F F T H
0.590935 0.545467 0.013473 F F T H
0.190935 0.345467 0.013473 F F T H
0.990935 0.745467 0.013473 F F T H
0.609065 0.054533 0.013473 F F T H
0.009065 0.254533 0.013473 F F T H
0.409065 0.454533 0.013473 F F T H
0.809065 0.654533 0.013473 F F T H
0.209065 0.854533 0.013473 F F T H
0.889011 0.944506 0.194231 F F T H
0.110989 0.055495 0.194231 F F T H
0.289011 0.144506 0.194231 F F T H
0.510989 0.255495 0.194231 F F T H
0.689011 0.344506 0.194231 F F T H
0.910989 0.455495 0.194231 F F T H
0.089011 0.544506 0.194231 F F T H
0.310989 0.655495 0.194231 F F T H
0.489011 0.744506 0.194231 F F T H
0.710989 0.855495 0.194231 F F T H
