In100 Fe250 Sb100
1.0
-0.000000 14.488379 -0.000000
-0.000000 0.000000 14.488379
85.574150 -0.000000 -0.000000
In Fe Sb
100 250 100
direct
0.000000 0.000000 0.037858 In
0.600000 0.800000 0.037858 In
0.200000 0.600000 0.037858 In
0.800000 0.400000 0.037858 In
0.400000 0.200000 0.037858 In
0.900000 0.700000 0.037858 In
0.500000 0.500000 0.037858 In
0.100000 0.300000 0.037858 In
0.700000 0.100000 0.037858 In
0.300000 0.900000 0.037858 In
0.800000 0.900000 0.000000 In
0.400000 0.700000 0.000000 In
0.000000 0.500000 0.000000 In
0.600000 0.300000 0.000000 In
0.200000 0.100000 0.000000 In
0.100000 0.800000 0.000000 In
0.700000 0.600000 0.000000 In
0.300000 0.400000 0.000000 In
0.900000 0.200000 0.000000 In
0.500000 0.000000 0.000000 In
0.000000 0.000000 0.113575 In
0.600000 0.800000 0.113575 In
0.200000 0.600000 0.113575 In
0.800000 0.400000 0.113575 In
0.400000 0.200000 0.113575 In
0.900000 0.700000 0.113575 In
0.500000 0.500000 0.113575 In
0.100000 0.300000 0.113575 In
0.700000 0.100000 0.113575 In
0.300000 0.900000 0.113575 In
0.800000 0.900000 0.075717 In
0.400000 0.700000 0.075717 In
0.000000 0.500000 0.075717 In
0.600000 0.300000 0.075717 In
0.200000 0.100000 0.075717 In
0.100000 0.800000 0.075717 In
0.700000 0.600000 0.075717 In
0.300000 0.400000 0.075717 In
0.900000 0.200000 0.075717 In
0.500000 0.000000 0.075717 In
0.000000 0.000000 0.189292 In
0.600000 0.800000 0.189292 In
0.200000 0.600000 0.189292 In
0.800000 0.400000 0.189292 In
0.400000 0.200000 0.189292 In
0.900000 0.700000 0.189292 In
0.500000 0.500000 0.189292 In
0.100000 0.300000 0.189292 In
0.700000 0.100000 0.189292 In
0.300000 0.900000 0.189292 In
0.800000 0.900000 0.151434 In
0.400000 0.700000 0.151434 In
0.000000 0.500000 0.151434 In
0.600000 0.300000 0.151434 In
0.200000 0.100000 0.151434 In
0.100000 0.800000 0.151434 In
0.700000 0.600000 0.151434 In
0.300000 0.400000 0.151434 In
0.900000 0.200000 0.151434 In
0.500000 0.000000 0.151434 In
0.000000 0.000000 0.265009 In
0.600000 0.800000 0.265009 In
0.200000 0.600000 0.265009 In
0.800000 0.400000 0.265009 In
0.400000 0.200000 0.265009 In
0.900000 0.700000 0.265009 In
0.500000 0.500000 0.265009 In
0.100000 0.300000 0.265009 In
0.700000 0.100000 0.265009 In
0.300000 0.900000 0.265009 In
0.800000 0.900000 0.227150 In
0.400000 0.700000 0.227150 In
0.000000 0.500000 0.227150 In
0.600000 0.300000 0.227150 In
0.200000 0.100000 0.227150 In
0.100000 0.800000 0.227150 In
0.700000 0.600000 0.227150 In
0.300000 0.400000 0.227150 In
0.900000 0.200000 0.227150 In
0.500000 0.000000 0.227150 In
0.000000 0.000000 0.340726 In
0.600000 0.800000 0.340726 In
0.200000 0.600000 0.340726 In
0.800000 0.400000 0.340726 In
0.400000 0.200000 0.340726 In
0.900000 0.700000 0.340726 In
0.500000 0.500000 0.340726 In
0.100000 0.300000 0.340726 In
0.700000 0.100000 0.340726 In
0.300000 0.900000 0.340726 In
0.800000 0.900000 0.302867 In
0.400000 0.700000 0.302867 In
0.000000 0.500000 0.302867 In
0.600000 0.300000 0.302867 In
0.200000 0.100000 0.302867 In
0.100000 0.800000 0.302867 In
0.700000 0.600000 0.302867 In
0.300000 0.400000 0.302867 In
0.900000 0.200000 0.302867 In
0.500000 0.000000 0.302867 In
0.000000 0.000000 0.381858 Fe
0.120000 0.840000 0.381858 Fe
0.240000 0.680000 0.381858 Fe
0.360000 0.520000 0.381858 Fe
0.480000 0.360000 0.381858 Fe
0.600000 0.200000 0.381858 Fe
0.720000 0.040000 0.381858 Fe
0.840000 0.880000 0.381858 Fe
0.960000 0.720000 0.381858 Fe
0.080000 0.560000 0.381858 Fe
0.200000 0.400000 0.381858 Fe
0.320000 0.240000 0.381858 Fe
0.440000 0.080000 0.381858 Fe
0.560000 0.920000 0.381858 Fe
0.680000 0.760000 0.381858 Fe
0.800000 0.600000 0.381858 Fe
0.920000 0.440000 0.381858 Fe
0.040000 0.280000 0.381858 Fe
0.160000 0.120000 0.381858 Fe
0.280000 0.960000 0.381858 Fe
0.400000 0.800000 0.381858 Fe
0.520000 0.640000 0.381858 Fe
0.640000 0.480000 0.381858 Fe
0.760000 0.320000 0.381858 Fe
0.880000 0.160000 0.381858 Fe
0.140000 0.980000 0.398603 Fe
0.260000 0.820000 0.398603 Fe
0.380000 0.660000 0.398603 Fe
0.500000 0.500000 0.398603 Fe
0.620000 0.340000 0.398603 Fe
0.740000 0.180000 0.398603 Fe
0.860000 0.020000 0.398603 Fe
0.980000 0.860000 0.398603 Fe
0.100000 0.700000 0.398603 Fe
0.220000 0.540000 0.398603 Fe
0.340000 0.380000 0.398603 Fe
0.460000 0.220000 0.398603 Fe
0.580000 0.060000 0.398603 Fe
0.700000 0.900000 0.398603 Fe
0.820000 0.740000 0.398603 Fe
0.940000 0.580000 0.398603 Fe
0.060000 0.420000 0.398603 Fe
0.180000 0.260000 0.398603 Fe
0.300000 0.100000 0.398603 Fe
0.420000 0.940000 0.398603 Fe
0.540000 0.780000 0.398603 Fe
0.660000 0.620000 0.398603 Fe
0.780000 0.460000 0.398603 Fe
0.900000 0.300000 0.398603 Fe
0.020000 0.140000 0.398603 Fe
0.000000 0.000000 0.415349 Fe
0.120000 0.840000 0.415349 Fe
0.240000 0.680000 0.415349 Fe
0.360000 0.520000 0.415349 Fe
0.480000 0.360000 0.415349 Fe
0.600000 0.200000 0.415349 Fe
0.720000 0.040000 0.415349 Fe
0.840000 0.880000 0.415349 Fe
0.960000 0.720000 0.415349 Fe
0.080000 0.560000 0.415349 Fe
0.200000 0.400000 0.415349 Fe
0.320000 0.240000 0.415349 Fe
0.440000 0.080000 0.415349 Fe
0.560000 0.920000 0.415349 Fe
0.680000 0.760000 0.415349 Fe
0.800000 0.600000 0.415349 Fe
0.920000 0.440000 0.415349 Fe
0.040000 0.280000 0.415349 Fe
0.160000 0.120000 0.415349 Fe
0.280000 0.960000 0.415349 Fe
0.400000 0.800000 0.415349 Fe
0.520000 0.640000 0.415349 Fe
0.640000 0.480000 0.415349 Fe
0.760000 0.320000 0.415349 Fe
0.880000 0.160000 0.415349 Fe
0.140000 0.980000 0.432095 Fe
0.260000 0.820000 0.432095 Fe
0.380000 0.660000 0.432095 Fe
0.500000 0.500000 0.432095 Fe
0.620000 0.340000 0.432095 Fe
0.740000 0.180000 0.432095 Fe
0.860000 0.020000 0.432095 Fe
0.980000 0.860000 0.432095 Fe
0.100000 0.700000 0.432095 Fe
0.220000 0.540000 0.432095 Fe
0.340000 0.380000 0.432095 Fe
0.460000 0.220000 0.432095 Fe
0.580000 0.060000 0.432095 Fe
0.700000 0.900000 0.432095 Fe
0.820000 0.740000 0.432095 Fe
0.940000 0.580000 0.432095 Fe
0.060000 0.420000 0.432095 Fe
0.180000 0.260000 0.432095 Fe
0.300000 0.100000 0.432095 Fe
0.420000 0.940000 0.432095 Fe
0.540000 0.780000 0.432095 Fe
0.660000 0.620000 0.432095 Fe
0.780000 0.460000 0.432095 Fe
0.900000 0.300000 0.432095 Fe
0.020000 0.140000 0.432095 Fe
0.000000 0.000000 0.448841 Fe
0.120000 0.840000 0.448841 Fe
0.240000 0.680000 0.448841 Fe
0.360000 0.520000 0.448841 Fe
0.480000 0.360000 0.448841 Fe
0.600000 0.200000 0.448841 Fe
0.720000 0.040000 0.448841 Fe
0.840000 0.880000 0.448841 Fe
0.960000 0.720000 0.448841 Fe
0.080000 0.560000 0.448841 Fe
0.200000 0.400000 0.448841 Fe
0.320000 0.240000 0.448841 Fe
0.440000 0.080000 0.448841 Fe
0.560000 0.920000 0.448841 Fe
0.680000 0.760000 0.448841 Fe
0.800000 0.600000 0.448841 Fe
0.920000 0.440000 0.448841 Fe
0.040000 0.280000 0.448841 Fe
0.160000 0.120000 0.448841 Fe
0.280000 0.960000 0.448841 Fe
0.400000 0.800000 0.448841 Fe
0.520000 0.640000 0.448841 Fe
0.640000 0.480000 0.448841 Fe
0.760000 0.320000 0.448841 Fe
0.880000 0.160000 0.448841 Fe
0.140000 0.980000 0.465586 Fe
0.260000 0.820000 0.465586 Fe
0.380000 0.660000 0.465586 Fe
0.500000 0.500000 0.465586 Fe
0.620000 0.340000 0.465586 Fe
0.740000 0.180000 0.465586 Fe
0.860000 0.020000 0.465586 Fe
0.980000 0.860000 0.465586 Fe
0.100000 0.700000 0.465586 Fe
0.220000 0.540000 0.465586 Fe
0.340000 0.380000 0.465586 Fe
0.460000 0.220000 0.465586 Fe
0.580000 0.060000 0.465586 Fe
0.700000 0.900000 0.465586 Fe
0.820000 0.740000 0.465586 Fe
0.940000 0.580000 0.465586 Fe
0.060000 0.420000 0.465586 Fe
0.180000 0.260000 0.465586 Fe
0.300000 0.100000 0.465586 Fe
0.420000 0.940000 0.465586 Fe
0.540000 0.780000 0.465586 Fe
0.660000 0.620000 0.465586 Fe
0.780000 0.460000 0.465586 Fe
0.900000 0.300000 0.465586 Fe
0.020000 0.140000 0.465586 Fe
0.000000 0.000000 0.482332 Fe
0.120000 0.840000 0.482332 Fe
0.240000 0.680000 0.482332 Fe
0.360000 0.520000 0.482332 Fe
0.480000 0.360000 0.482332 Fe
0.600000 0.200000 0.482332 Fe
0.720000 0.040000 0.482332 Fe
0.840000 0.880000 0.482332 Fe
0.960000 0.720000 0.482332 Fe
0.080000 0.560000 0.482332 Fe
0.200000 0.400000 0.482332 Fe
0.320000 0.240000 0.482332 Fe
0.440000 0.080000 0.482332 Fe
0.560000 0.920000 0.482332 Fe
0.680000 0.760000 0.482332 Fe
0.800000 0.600000 0.482332 Fe
0.920000 0.440000 0.482332 Fe
0.040000 0.280000 0.482332 Fe
0.160000 0.120000 0.482332 Fe
0.280000 0.960000 0.482332 Fe
0.400000 0.800000 0.482332 Fe
0.520000 0.640000 0.482332 Fe
0.640000 0.480000 0.482332 Fe
0.760000 0.320000 0.482332 Fe
0.880000 0.160000 0.482332 Fe
0.140000 0.980000 0.499078 Fe
0.260000 0.820000 0.499078 Fe
0.380000 0.660000 0.499078 Fe
0.500000 0.500000 0.499078 Fe
0.620000 0.340000 0.499078 Fe
0.740000 0.180000 0.499078 Fe
0.860000 0.020000 0.499078 Fe
0.980000 0.860000 0.499078 Fe
0.100000 0.700000 0.499078 Fe
0.220000 0.540000 0.499078 Fe
0.340000 0.380000 0.499078 Fe
0.460000 0.220000 0.499078 Fe
0.580000 0.060000 0.499078 Fe
0.700000 0.900000 0.499078 Fe
0.820000 0.740000 0.499078 Fe
0.940000 0.580000 0.499078 Fe
0.060000 0.420000 0.499078 Fe
0.180000 0.260000 0.499078 Fe
0.300000 0.100000 0.499078 Fe
0.420000 0.940000 0.499078 Fe
0.540000 0.780000 0.499078 Fe
0.660000 0.620000 0.499078 Fe
0.780000 0.460000 0.499078 Fe
0.900000 0.300000 0.499078 Fe
0.020000 0.140000 0.499078 Fe
0.000000 0.000000 0.515823 Fe
0.120000 0.840000 0.515823 Fe
0.240000 0.680000 0.515823 Fe
0.360000 0.520000 0.515823 Fe
0.480000 0.360000 0.515823 Fe
0.600000 0.200000 0.515823 Fe
0.720000 0.040000 0.515823 Fe
0.840000 0.880000 0.515823 Fe
0.960000 0.720000 0.515823 Fe
0.080000 0.560000 0.515823 Fe
0.200000 0.400000 0.515823 Fe
0.320000 0.240000 0.515823 Fe
0.440000 0.080000 0.515823 Fe
0.560000 0.920000 0.515823 Fe
0.680000 0.760000 0.515823 Fe
0.800000 0.600000 0.515823 Fe
0.920000 0.440000 0.515823 Fe
0.040000 0.280000 0.515823 Fe
0.160000 0.120000 0.515823 Fe
0.280000 0.960000 0.515823 Fe
0.400000 0.800000 0.515823 Fe
0.520000 0.640000 0.515823 Fe
0.640000 0.480000 0.515823 Fe
0.760000 0.320000 0.515823 Fe
0.880000 0.160000 0.515823 Fe
0.140000 0.980000 0.532569 Fe
0.260000 0.820000 0.532569 Fe
0.380000 0.660000 0.532569 Fe
0.500000 0.500000 0.532569 Fe
0.620000 0.340000 0.532569 Fe
0.740000 0.180000 0.532569 Fe
0.860000 0.020000 0.532569 Fe
0.980000 0.860000 0.532569 Fe
0.100000 0.700000 0.532569 Fe
0.220000 0.540000 0.532569 Fe
0.340000 0.380000 0.532569 Fe
0.460000 0.220000 0.532569 Fe
0.580000 0.060000 0.532569 Fe
0.700000 0.900000 0.532569 Fe
0.820000 0.740000 0.532569 Fe
0.940000 0.580000 0.532569 Fe
0.060000 0.420000 0.532569 Fe
0.180000 0.260000 0.532569 Fe
0.300000 0.100000 0.532569 Fe
0.420000 0.940000 0.532569 Fe
0.540000 0.780000 0.532569 Fe
0.660000 0.620000 0.532569 Fe
0.780000 0.460000 0.532569 Fe
0.900000 0.300000 0.532569 Fe
0.020000 0.140000 0.532569 Fe
0.950000 0.850000 0.056788 Sb
0.550000 0.650000 0.056788 Sb
0.150000 0.450000 0.056788 Sb
0.750000 0.250000 0.056788 Sb
0.350000 0.050000 0.056788 Sb
0.850000 0.550000 0.056788 Sb
0.450000 0.350000 0.056788 Sb
0.050000 0.150000 0.056788 Sb
0.650000 0.950000 0.056788 Sb
0.250000 0.750000 0.056788 Sb
0.750000 0.750000 0.018929 Sb
0.350000 0.550000 0.018929 Sb
0.950000 0.350000 0.018929 Sb
0.550000 0.150000 0.018929 Sb
0.150000 0.950000 0.018929 Sb
0.050000 0.650000 0.018929 Sb
0.650000 0.450000 0.018929 Sb
0.250000 0.250000 0.018929 Sb
0.850000 0.050000 0.018929 Sb
0.450000 0.850000 0.018929 Sb
0.950000 0.850000 0.132504 Sb
0.550000 0.650000 0.132504 Sb
0.150000 0.450000 0.132504 Sb
0.750000 0.250000 0.132504 Sb
0.350000 0.050000 0.132504 Sb
0.850000 0.550000 0.132504 Sb
0.450000 0.350000 0.132504 Sb
0.050000 0.150000 0.132504 Sb
0.650000 0.950000 0.132504 Sb
0.250000 0.750000 0.132504 Sb
0.750000 0.750000 0.094646 Sb
0.350000 0.550000 0.094646 Sb
0.950000 0.350000 0.094646 Sb
0.550000 0.150000 0.094646 Sb
0.150000 0.950000 0.094646 Sb
0.050000 0.650000 0.094646 Sb
0.650000 0.450000 0.094646 Sb
0.250000 0.250000 0.094646 Sb
0.850000 0.050000 0.094646 Sb
0.450000 0.850000 0.094646 Sb
0.950000 0.850000 0.208221 Sb
0.550000 0.650000 0.208221 Sb
0.150000 0.450000 0.208221 Sb
0.750000 0.250000 0.208221 Sb
0.350000 0.050000 0.208221 Sb
0.850000 0.550000 0.208221 Sb
0.450000 0.350000 0.208221 Sb
0.050000 0.150000 0.208221 Sb
0.650000 0.950000 0.208221 Sb
0.250000 0.750000 0.208221 Sb
0.750000 0.750000 0.170363 Sb
0.350000 0.550000 0.170363 Sb
0.950000 0.350000 0.170363 Sb
0.550000 0.150000 0.170363 Sb
0.150000 0.950000 0.170363 Sb
0.050000 0.650000 0.170363 Sb
0.650000 0.450000 0.170363 Sb
0.250000 0.250000 0.170363 Sb
0.850000 0.050000 0.170363 Sb
0.450000 0.850000 0.170363 Sb
0.950000 0.850000 0.283938 Sb
0.550000 0.650000 0.283938 Sb
0.150000 0.450000 0.283938 Sb
0.750000 0.250000 0.283938 Sb
0.350000 0.050000 0.283938 Sb
0.850000 0.550000 0.283938 Sb
0.450000 0.350000 0.283938 Sb
0.050000 0.150000 0.283938 Sb
0.650000 0.950000 0.283938 Sb
0.250000 0.750000 0.283938 Sb
0.750000 0.750000 0.246080 Sb
0.350000 0.550000 0.246080 Sb
0.950000 0.350000 0.246080 Sb
0.550000 0.150000 0.246080 Sb
0.150000 0.950000 0.246080 Sb
0.050000 0.650000 0.246080 Sb
0.650000 0.450000 0.246080 Sb
0.250000 0.250000 0.246080 Sb
0.850000 0.050000 0.246080 Sb
0.450000 0.850000 0.246080 Sb
0.950000 0.850000 0.359655 Sb
0.550000 0.650000 0.359655 Sb
0.150000 0.450000 0.359655 Sb
0.750000 0.250000 0.359655 Sb
0.350000 0.050000 0.359655 Sb
0.850000 0.550000 0.359655 Sb
0.450000 0.350000 0.359655 Sb
0.050000 0.150000 0.359655 Sb
0.650000 0.950000 0.359655 Sb
0.250000 0.750000 0.359655 Sb
0.750000 0.750000 0.321796 Sb
0.350000 0.550000 0.321796 Sb
0.950000 0.350000 0.321796 Sb
0.550000 0.150000 0.321796 Sb
0.150000 0.950000 0.321796 Sb
0.050000 0.650000 0.321796 Sb
0.650000 0.450000 0.321796 Sb
0.250000 0.250000 0.321796 Sb
0.850000 0.050000 0.321796 Sb
0.450000 0.850000 0.321796 Sb
