In20 Fe50 Sb20
1.0
0.000000 6.479400 0.000000
6.479400 0.000000 -0.000000
-0.000000 0.000000 -85.874150
In Fe Sb
20 50 20
direct
-0.000000 0.000000 1.000000 In
0.500000 0.500000 1.000000 In
0.500000 -0.000000 0.037726 In
0.000000 0.500000 0.037726 In
0.000000 -0.000000 0.075452 In
0.500000 0.500000 0.075452 In
0.500000 -0.000000 0.113178 In
0.000000 0.500000 0.113178 In
0.000000 -0.000000 0.150905 In
0.500000 0.500000 0.150905 In
0.500000 -0.000000 0.188631 In
0.000000 0.500000 0.188631 In
0.000000 -0.000000 0.226357 In
0.500000 0.500000 0.226357 In
0.500000 -0.000000 0.264083 In
0.000000 0.500000 0.264083 In
0.000000 -0.000000 0.301809 In
0.500000 0.500000 0.301809 In
0.500000 -0.000000 0.339535 In
0.000000 0.500000 0.339535 In
0.000000 -0.000000 0.400704 Fe
0.400000 0.800000 0.400704 Fe
0.800000 0.600000 0.400704 Fe
0.200000 0.400000 0.400704 Fe
0.600000 0.200000 0.400704 Fe
0.300000 0.100000 0.384017 Fe
0.700000 0.900000 0.384017 Fe
0.100000 0.700000 0.384017 Fe
0.500000 0.500000 0.384017 Fe
0.900000 0.300000 0.384017 Fe
0.000000 -0.000000 0.434079 Fe
0.400000 0.800000 0.434079 Fe
0.800000 0.600000 0.434079 Fe
0.200000 0.400000 0.434079 Fe
0.600000 0.200000 0.434079 Fe
0.300000 0.100000 0.417392 Fe
0.700000 0.900000 0.417392 Fe
0.100000 0.700000 0.417392 Fe
0.500000 0.500000 0.417392 Fe
0.900000 0.300000 0.417392 Fe
0.000000 -0.000000 0.467453 Fe
0.400000 0.800000 0.467453 Fe
0.800000 0.600000 0.467453 Fe
0.200000 0.400000 0.467453 Fe
0.600000 0.200000 0.467453 Fe
0.300000 0.100000 0.450766 Fe
0.700000 0.900000 0.450766 Fe
0.100000 0.700000 0.450766 Fe
0.500000 0.500000 0.450766 Fe
0.900000 0.300000 0.450766 Fe
-0.000000 0.000000 0.500828 Fe
0.400000 0.800000 0.500828 Fe
0.800000 0.600000 0.500828 Fe
0.200000 0.400000 0.500828 Fe
0.600000 0.200000 0.500828 Fe
0.300000 0.100000 0.484140 Fe
0.700000 0.900000 0.484140 Fe
0.100000 0.700000 0.484140 Fe
0.500000 0.500000 0.484140 Fe
0.900000 0.300000 0.484140 Fe
-0.000000 0.000000 0.534202 Fe
0.400000 0.800000 0.534202 Fe
0.800000 0.600000 0.534202 Fe
0.200000 0.400000 0.534202 Fe
0.600000 0.200000 0.534202 Fe
0.300000 0.100000 0.517515 Fe
0.700000 0.900000 0.517515 Fe
0.100000 0.700000 0.517515 Fe
0.500000 0.500000 0.517515 Fe
0.900000 0.300000 0.517515 Fe
0.750000 0.750000 0.018863 Sb
0.250000 0.250000 0.018863 Sb
0.250000 0.750000 0.056589 Sb
0.750000 0.250000 0.056589 Sb
0.750000 0.750000 0.094315 Sb
0.250000 0.250000 0.094315 Sb
0.250000 0.750000 0.132041 Sb
0.750000 0.250000 0.132041 Sb
0.750000 0.750000 0.169768 Sb
0.250000 0.250000 0.169768 Sb
0.250000 0.750000 0.207494 Sb
0.750000 0.250000 0.207494 Sb
0.750000 0.750000 0.245220 Sb
0.250000 0.250000 0.245220 Sb
0.250000 0.750000 0.282946 Sb
0.750000 0.250000 0.282946 Sb
0.750000 0.750000 0.320672 Sb
0.250000 0.250000 0.320672 Sb
0.250000 0.750000 0.358398 Sb
0.750000 0.250000 0.358398 Sb
