Al90 In40 As40
1.0
0.000000 8.567871 0.000000
8.567871 0.000000 -0.000000
-0.000000 0.000000 -89.152585
Al In As
90 40 40
direct
0.000000 -0.000000 0.370117 Al
0.333333 0.666667 0.370117 Al
0.666667 0.333333 0.370117 Al
0.666667 0.666667 0.370117 Al
0.000000 0.333333 0.370117 Al
0.333333 -0.000000 0.370117 Al
0.333333 0.333333 0.370117 Al
0.666667 -0.000000 0.370117 Al
0.000000 0.666667 0.370117 Al
0.166667 0.833333 0.347465 Al
0.500000 0.500000 0.347465 Al
0.833333 0.166667 0.347465 Al
0.833333 0.500000 0.347465 Al
0.166667 0.166667 0.347465 Al
0.500000 0.833333 0.347465 Al
0.500000 0.166667 0.347465 Al
0.833333 0.833333 0.347465 Al
0.166667 0.500000 0.347465 Al
0.000000 -0.000000 0.415420 Al
0.333333 0.666667 0.415420 Al
0.666667 0.333333 0.415420 Al
0.666667 0.666667 0.415420 Al
0.000000 0.333333 0.415420 Al
0.333333 -0.000000 0.415420 Al
0.333333 0.333333 0.415420 Al
0.666667 -0.000000 0.415420 Al
0.000000 0.666667 0.415420 Al
0.166667 0.833333 0.392769 Al
0.500000 0.500000 0.392769 Al
0.833333 0.166667 0.392769 Al
0.833333 0.500000 0.392769 Al
0.166667 0.166667 0.392769 Al
0.500000 0.833333 0.392769 Al
0.500000 0.166667 0.392769 Al
0.833333 0.833333 0.392769 Al
0.166667 0.500000 0.392769 Al
0.000000 -0.000000 0.460724 Al
0.333333 0.666667 0.460724 Al
0.666667 0.333333 0.460724 Al
0.666667 0.666667 0.460724 Al
0.000000 0.333333 0.460724 Al
0.333333 -0.000000 0.460724 Al
0.333333 0.333333 0.460724 Al
0.666667 -0.000000 0.460724 Al
0.000000 0.666667 0.460724 Al
0.166667 0.833333 0.438072 Al
0.500000 0.500000 0.438072 Al
0.833333 0.166667 0.438072 Al
0.833333 0.500000 0.438072 Al
0.166667 0.166667 0.438072 Al
0.500000 0.833333 0.438072 Al
0.500000 0.166667 0.438072 Al
0.833333 0.833333 0.438072 Al
0.166667 0.500000 0.438072 Al
-0.000000 0.000000 0.506027 Al
0.333333 0.666667 0.506027 Al
0.666667 0.333333 0.506027 Al
0.666667 0.666667 0.506027 Al
-0.000000 0.333333 0.506027 Al
0.333333 0.000000 0.506027 Al
0.333333 0.333333 0.506027 Al
0.666667 0.000000 0.506027 Al
-0.000000 0.666667 0.506027 Al
0.166667 0.833333 0.483376 Al
0.500000 0.500000 0.483376 Al
0.833333 0.166667 0.483376 Al
0.833333 0.500000 0.483376 Al
0.166667 0.166667 0.483376 Al
0.500000 0.833333 0.483376 Al
0.500000 0.166667 0.483376 Al
0.833333 0.833333 0.483376 Al
0.166667 0.500000 0.483376 Al
-0.000000 0.000000 0.551331 Al
0.333333 0.666667 0.551331 Al
0.666667 0.333333 0.551331 Al
0.666667 0.666667 0.551331 Al
-0.000000 0.333333 0.551331 Al
0.333333 0.000000 0.551331 Al
0.333333 0.333333 0.551331 Al
0.666667 0.000000 0.551331 Al
-0.000000 0.666667 0.551331 Al
0.166667 0.833333 0.528679 Al
0.500000 0.500000 0.528679 Al
0.833333 0.166667 0.528679 Al
0.833333 0.500000 0.528679 Al
0.166667 0.166667 0.528679 Al
0.500000 0.833333 0.528679 Al
0.500000 0.166667 0.528679 Al
0.833333 0.833333 0.528679 Al
0.166667 0.500000 0.528679 Al
-0.000000 0.000000 1.000000 In
0.500000 0.500000 1.000000 In
-0.000000 0.500000 1.000000 In
0.500000 0.000000 1.000000 In
0.250000 0.750000 0.033978 In
0.750000 0.250000 0.033978 In
0.750000 0.750000 0.033978 In
0.250000 0.250000 0.033978 In
0.000000 -0.000000 0.067955 In
0.500000 0.500000 0.067955 In
0.000000 0.500000 0.067955 In
0.500000 -0.000000 0.067955 In
0.250000 0.750000 0.101933 In
0.750000 0.250000 0.101933 In
0.750000 0.750000 0.101933 In
0.250000 0.250000 0.101933 In
0.000000 -0.000000 0.135911 In
0.500000 0.500000 0.135911 In
0.000000 0.500000 0.135911 In
0.500000 -0.000000 0.135911 In
0.250000 0.750000 0.169889 In
0.750000 0.250000 0.169889 In
0.750000 0.750000 0.169889 In
0.250000 0.250000 0.169889 In
0.000000 -0.000000 0.203866 In
0.500000 0.500000 0.203866 In
0.000000 0.500000 0.203866 In
0.500000 -0.000000 0.203866 In
0.250000 0.750000 0.237844 In
0.750000 0.250000 0.237844 In
0.750000 0.750000 0.237844 In
0.250000 0.250000 0.237844 In
0.000000 -0.000000 0.271822 In
0.500000 0.500000 0.271822 In
0.000000 0.500000 0.271822 In
0.500000 -0.000000 0.271822 In
0.250000 0.750000 0.305799 In
0.750000 0.250000 0.305799 In
0.750000 0.750000 0.305799 In
0.250000 0.250000 0.305799 In
0.000000 0.750000 0.016989 As
0.500000 0.250000 0.016989 As
0.000000 0.250000 0.016989 As
0.500000 0.750000 0.016989 As
0.250000 0.500000 0.050967 As
0.750000 -0.000000 0.050967 As
0.750000 0.500000 0.050967 As
0.250000 -0.000000 0.050967 As
0.000000 0.750000 0.084944 As
0.500000 0.250000 0.084944 As
0.000000 0.250000 0.084944 As
0.500000 0.750000 0.084944 As
0.250000 0.500000 0.118922 As
0.750000 -0.000000 0.118922 As
0.750000 0.500000 0.118922 As
0.250000 -0.000000 0.118922 As
0.000000 0.750000 0.152900 As
0.500000 0.250000 0.152900 As
0.000000 0.250000 0.152900 As
0.500000 0.750000 0.152900 As
0.250000 0.500000 0.186877 As
0.750000 -0.000000 0.186877 As
0.750000 0.500000 0.186877 As
0.250000 -0.000000 0.186877 As
0.000000 0.750000 0.220855 As
0.500000 0.250000 0.220855 As
0.000000 0.250000 0.220855 As
0.500000 0.750000 0.220855 As
0.250000 0.500000 0.254833 As
0.750000 -0.000000 0.254833 As
0.750000 0.500000 0.254833 As
0.250000 -0.000000 0.254833 As
0.000000 0.750000 0.288810 As
0.500000 0.250000 0.288810 As
0.000000 0.250000 0.288810 As
0.500000 0.750000 0.288810 As
0.250000 0.500000 0.322788 As
0.750000 -0.000000 0.322788 As
0.750000 0.500000 0.322788 As
0.250000 -0.000000 0.322788 As
