Al90 In40 As40
1.0
0.000000 8.567871 0.000000
66.902585 0.000000 0.000000
0.000000 -2.855957 -8.567871
Al In As
90 40 40
direct
0.000000 0.425439 0.000000 Al
0.000000 0.425439 0.333333 Al
1.000000 0.425439 0.666667 Al
0.333333 0.425439 1.000000 Al
0.333333 0.425439 0.333333 Al
0.333333 0.425439 0.666667 Al
0.666667 0.425439 0.000000 Al
0.666667 0.425439 0.333333 Al
0.666667 0.425439 0.666667 Al
0.000000 0.395254 0.166667 Al
0.000000 0.395254 0.500000 Al
1.000000 0.395254 0.833333 Al
0.333333 0.395254 0.166667 Al
0.333333 0.395254 0.500000 Al
0.333333 0.395254 0.833333 Al
0.666667 0.395254 0.166667 Al
0.666667 0.395254 0.500000 Al
0.666667 0.395254 0.833333 Al
0.000000 0.365069 0.000000 Al
0.000000 0.365069 0.333333 Al
1.000000 0.365069 0.666667 Al
0.333333 0.365069 1.000000 Al
0.333333 0.365069 0.333333 Al
0.333333 0.365069 0.666667 Al
0.666667 0.365069 0.000000 Al
0.666667 0.365069 0.333333 Al
0.666667 0.365069 0.666667 Al
0.000000 0.334883 0.166667 Al
0.000000 0.334883 0.500000 Al
1.000000 0.334883 0.833333 Al
0.333333 0.334883 0.166667 Al
0.333333 0.334883 0.500000 Al
0.333333 0.334883 0.833333 Al
0.666667 0.334883 0.166667 Al
0.666667 0.334883 0.500000 Al
0.666667 0.334883 0.833333 Al
0.000000 0.304698 0.000000 Al
0.000000 0.304698 0.333333 Al
1.000000 0.304698 0.666667 Al
0.333333 0.304698 1.000000 Al
0.333333 0.304698 0.333333 Al
0.333333 0.304698 0.666667 Al
0.666667 0.304698 0.000000 Al
0.666667 0.304698 0.333333 Al
0.666667 0.304698 0.666667 Al
0.000000 0.274513 0.166667 Al
0.000000 0.274513 0.500000 Al
1.000000 0.274513 0.833333 Al
0.333333 0.274513 0.166667 Al
0.333333 0.274513 0.500000 Al
0.333333 0.274513 0.833333 Al
0.666667 0.274513 0.166667 Al
0.666667 0.274513 0.500000 Al
0.666667 0.274513 0.833333 Al
0.000000 0.244328 0.000000 Al
0.000000 0.244328 0.333333 Al
1.000000 0.244328 0.666667 Al
0.333333 0.244328 1.000000 Al
0.333333 0.244328 0.333333 Al
0.333333 0.244328 0.666667 Al
0.666667 0.244328 0.000000 Al
0.666667 0.244328 0.333333 Al
0.666667 0.244328 0.666667 Al
0.000000 0.214143 0.166667 Al
0.000000 0.214143 0.500000 Al
1.000000 0.214143 0.833333 Al
0.333333 0.214143 0.166667 Al
0.333333 0.214143 0.500000 Al
0.333333 0.214143 0.833333 Al
0.666667 0.214143 0.166667 Al
0.666667 0.214143 0.500000 Al
0.666667 0.214143 0.833333 Al
0.000000 0.183958 0.000000 Al
0.000000 0.183958 0.333333 Al
1.000000 0.183958 0.666667 Al
0.333333 0.183958 1.000000 Al
0.333333 0.183958 0.333333 Al
0.333333 0.183958 0.666667 Al
0.666667 0.183958 0.000000 Al
0.666667 0.183958 0.333333 Al
0.666667 0.183958 0.666667 Al
0.000000 0.153772 0.166667 Al
0.000000 0.153772 0.500000 Al
1.000000 0.153772 0.833333 Al
0.333333 0.153772 0.166667 Al
0.333333 0.153772 0.500000 Al
0.333333 0.153772 0.833333 Al
0.666667 0.153772 0.166667 Al
0.666667 0.153772 0.500000 Al
0.666667 0.153772 0.833333 Al
0.000000 0.832939 0.000000 In
0.000000 0.832939 0.500000 In
1.000000 0.787661 0.250000 In
0.000000 0.787661 0.750000 In
0.500000 0.787661 0.500000 In
0.500000 0.787661 0.000000 In
0.500000 0.832939 0.750000 In
0.500000 0.832939 0.250000 In
0.000000 0.742383 0.000000 In
0.000000 0.742383 0.500000 In
1.000000 0.697105 0.250000 In
0.000000 0.697105 0.750000 In
0.500000 0.697105 0.500000 In
0.500000 0.697105 0.000000 In
0.500000 0.742383 0.750000 In
0.500000 0.742383 0.250000 In
0.000000 0.651828 0.000000 In
0.000000 0.651828 0.500000 In
1.000000 0.606550 0.250000 In
0.000000 0.606550 0.750000 In
0.500000 0.606550 0.500000 In
0.500000 0.606550 0.000000 In
0.500000 0.651828 0.750000 In
0.500000 0.651828 0.250000 In
0.000000 0.561272 0.000000 In
0.000000 0.561272 0.500000 In
1.000000 0.515994 0.250000 In
0.000000 0.515994 0.750000 In
0.500000 0.515994 0.500000 In
0.500000 0.515994 0.000000 In
0.500000 0.561272 0.750000 In
0.500000 0.561272 0.250000 In
0.000000 0.470717 0.000000 In
0.000000 0.470717 0.500000 In
1.000000 0.425439 0.250000 In
0.000000 0.425439 0.750000 In
0.500000 0.425439 0.500000 In
0.500000 0.425439 0.000000 In
0.500000 0.470717 0.750000 In
0.500000 0.470717 0.250000 In
0.750000 0.810300 0.875000 As
0.750000 0.810300 0.375000 As
0.750000 0.855578 0.125000 As
0.750000 0.855578 0.625000 As
0.250000 0.855578 0.375000 As
0.250000 0.855578 0.875000 As
0.250000 0.810300 0.625000 As
0.250000 0.810300 0.125000 As
0.750000 0.719744 0.875000 As
0.750000 0.719744 0.375000 As
0.750000 0.765022 0.125000 As
0.750000 0.765022 0.625000 As
0.250000 0.765022 0.375000 As
0.250000 0.765022 0.875000 As
0.250000 0.719744 0.625000 As
0.250000 0.719744 0.125000 As
0.750000 0.629189 0.875000 As
0.750000 0.629189 0.375000 As
0.750000 0.674467 0.125000 As
0.750000 0.674467 0.625000 As
0.250000 0.674467 0.375000 As
0.250000 0.674467 0.875000 As
0.250000 0.629189 0.625000 As
0.250000 0.629189 0.125000 As
0.750000 0.538633 0.875000 As
0.750000 0.538633 0.375000 As
0.750000 0.583911 0.125000 As
0.750000 0.583911 0.625000 As
0.250000 0.583911 0.375000 As
0.250000 0.583911 0.875000 As
0.250000 0.538633 0.625000 As
0.250000 0.538633 0.125000 As
0.750000 0.448078 0.875000 As
0.750000 0.448078 0.375000 As
0.750000 0.493356 0.125000 As
0.750000 0.493356 0.625000 As
0.250000 0.493356 0.375000 As
0.250000 0.493356 0.875000 As
0.250000 0.448078 0.625000 As
0.250000 0.448078 0.125000 As
