In300 Sn704 Sb300 H40
1.0
6.479400 0.000000 0.000000
0.000000 64.794000 0.000000
0.000000 0.000000 126.525410
In Sn Sb H
300 704 300 40
direct
0.000000 0.000000 0.396880 In
0.000000 0.100000 0.396880 In
0.000000 0.200000 0.396880 In
0.000000 0.300000 0.396880 In
0.000000 0.400000 0.396880 In
0.000000 0.500000 0.396880 In
0.000000 0.600000 0.396880 In
0.000000 0.700000 0.396880 In
0.000000 0.800000 0.396880 In
0.000000 0.900000 0.396880 In
0.500000 0.050000 0.396880 In
0.500000 0.150000 0.396880 In
0.500000 0.250000 0.396880 In
0.500000 0.350000 0.396880 In
0.500000 0.450000 0.396880 In
0.500000 0.550000 0.396880 In
0.500000 0.650000 0.396880 In
0.500000 0.750000 0.396880 In
0.500000 0.850000 0.396880 In
0.500000 0.950000 0.396880 In
0.000000 0.050000 0.371274 In
0.000000 0.150000 0.371274 In
0.000000 0.250000 0.371274 In
0.000000 0.350000 0.371274 In
0.000000 0.450000 0.371274 In
0.000000 0.550000 0.371274 In
0.000000 0.650000 0.371274 In
0.000000 0.750000 0.371274 In
0.000000 0.850000 0.371274 In
0.000000 0.950000 0.371274 In
0.500000 0.000000 0.371274 In
0.500000 0.100000 0.371274 In
0.500000 0.200000 0.371274 In
0.500000 0.300000 0.371274 In
0.500000 0.400000 0.371274 In
0.500000 0.500000 0.371274 In
0.500000 0.600000 0.371274 In
0.500000 0.700000 0.371274 In
0.500000 0.800000 0.371274 In
0.500000 0.900000 0.371274 In
0.000000 0.000000 0.345669 In
0.000000 0.100000 0.345669 In
0.000000 0.200000 0.345669 In
0.000000 0.300000 0.345669 In
0.000000 0.400000 0.345669 In
0.000000 0.500000 0.345669 In
0.000000 0.600000 0.345669 In
0.000000 0.700000 0.345669 In
0.000000 0.800000 0.345669 In
0.000000 0.900000 0.345669 In
0.500000 0.050000 0.345669 In
0.500000 0.150000 0.345669 In
0.500000 0.250000 0.345669 In
0.500000 0.350000 0.345669 In
0.500000 0.450000 0.345669 In
0.500000 0.550000 0.345669 In
0.500000 0.650000 0.345669 In
0.500000 0.750000 0.345669 In
0.500000 0.850000 0.345669 In
0.500000 0.950000 0.345669 In
0.000000 0.050000 0.320064 In
0.000000 0.150000 0.320064 In
0.000000 0.250000 0.320064 In
0.000000 0.350000 0.320064 In
0.000000 0.450000 0.320064 In
0.000000 0.550000 0.320064 In
0.000000 0.650000 0.320064 In
0.000000 0.750000 0.320064 In
0.000000 0.850000 0.320064 In
0.000000 0.950000 0.320064 In
0.500000 0.000000 0.320064 In
0.500000 0.100000 0.320064 In
0.500000 0.200000 0.320064 In
0.500000 0.300000 0.320064 In
0.500000 0.400000 0.320064 In
0.500000 0.500000 0.320064 In
0.500000 0.600000 0.320064 In
0.500000 0.700000 0.320064 In
0.500000 0.800000 0.320064 In
0.500000 0.900000 0.320064 In
0.000000 0.000000 0.294459 In
0.000000 0.100000 0.294459 In
0.000000 0.200000 0.294459 In
0.000000 0.300000 0.294459 In
0.000000 0.400000 0.294459 In
0.000000 0.500000 0.294459 In
0.000000 0.600000 0.294459 In
0.000000 0.700000 0.294459 In
0.000000 0.800000 0.294459 In
0.000000 0.900000 0.294459 In
0.500000 0.050000 0.294459 In
0.500000 0.150000 0.294459 In
0.500000 0.250000 0.294459 In
0.500000 0.350000 0.294459 In
0.500000 0.450000 0.294459 In
0.500000 0.550000 0.294459 In
0.500000 0.650000 0.294459 In
0.500000 0.750000 0.294459 In
0.500000 0.850000 0.294459 In
0.500000 0.950000 0.294459 In
0.000000 0.050000 0.268854 In
0.000000 0.150000 0.268854 In
0.000000 0.250000 0.268854 In
0.000000 0.350000 0.268854 In
0.000000 0.450000 0.268854 In
0.000000 0.550000 0.268854 In
0.000000 0.650000 0.268854 In
0.000000 0.750000 0.268854 In
0.000000 0.850000 0.268854 In
0.000000 0.950000 0.268854 In
0.500000 0.000000 0.268854 In
0.500000 0.100000 0.268854 In
0.500000 0.200000 0.268854 In
0.500000 0.300000 0.268854 In
0.500000 0.400000 0.268854 In
0.500000 0.500000 0.268854 In
0.500000 0.600000 0.268854 In
0.500000 0.700000 0.268854 In
0.500000 0.800000 0.268854 In
0.500000 0.900000 0.268854 In
0.000000 0.000000 0.243249 In
0.000000 0.100000 0.243249 In
0.000000 0.200000 0.243249 In
0.000000 0.300000 0.243249 In
0.000000 0.400000 0.243249 In
0.000000 0.500000 0.243249 In
0.000000 0.600000 0.243249 In
0.000000 0.700000 0.243249 In
0.000000 0.800000 0.243249 In
0.000000 0.900000 0.243249 In
0.500000 0.050000 0.243249 In
0.500000 0.150000 0.243249 In
0.500000 0.250000 0.243249 In
0.500000 0.350000 0.243249 In
0.500000 0.450000 0.243249 In
0.500000 0.550000 0.243249 In
0.500000 0.650000 0.243249 In
0.500000 0.750000 0.243249 In
0.500000 0.850000 0.243249 In
0.500000 0.950000 0.243249 In
0.000000 0.050000 0.217644 In
0.000000 0.150000 0.217644 In
0.000000 0.250000 0.217644 In
0.000000 0.350000 0.217644 In
0.000000 0.450000 0.217644 In
0.000000 0.550000 0.217644 In
0.000000 0.650000 0.217644 In
0.000000 0.750000 0.217644 In
0.000000 0.850000 0.217644 In
0.000000 0.950000 0.217644 In
0.500000 0.000000 0.217644 In
0.500000 0.100000 0.217644 In
0.500000 0.200000 0.217644 In
0.500000 0.300000 0.217644 In
0.500000 0.400000 0.217644 In
0.500000 0.500000 0.217644 In
0.500000 0.600000 0.217644 In
0.500000 0.700000 0.217644 In
0.500000 0.800000 0.217644 In
0.500000 0.900000 0.217644 In
0.000000 0.000000 0.192039 In
0.000000 0.100000 0.192039 In
0.000000 0.200000 0.192039 In
0.000000 0.300000 0.192039 In
0.000000 0.400000 0.192039 In
0.000000 0.500000 0.192039 In
0.000000 0.600000 0.192039 In
0.000000 0.700000 0.192039 In
0.000000 0.800000 0.192039 In
0.000000 0.900000 0.192039 In
0.500000 0.050000 0.192039 In
0.500000 0.150000 0.192039 In
0.500000 0.250000 0.192039 In
0.500000 0.350000 0.192039 In
0.500000 0.450000 0.192039 In
0.500000 0.550000 0.192039 In
0.500000 0.650000 0.192039 In
0.500000 0.750000 0.192039 In
0.500000 0.850000 0.192039 In
0.500000 0.950000 0.192039 In
0.000000 0.050000 0.166433 In
0.000000 0.150000 0.166433 In
0.000000 0.250000 0.166433 In
0.000000 0.350000 0.166433 In
0.000000 0.450000 0.166433 In
0.000000 0.550000 0.166433 In
0.000000 0.650000 0.166433 In
0.000000 0.750000 0.166433 In
0.000000 0.850000 0.166433 In
0.000000 0.950000 0.166433 In
0.500000 0.000000 0.166433 In
0.500000 0.100000 0.166433 In
0.500000 0.200000 0.166433 In
0.500000 0.300000 0.166433 In
0.500000 0.400000 0.166433 In
0.500000 0.500000 0.166433 In
0.500000 0.600000 0.166433 In
0.500000 0.700000 0.166433 In
0.500000 0.800000 0.166433 In
0.500000 0.900000 0.166433 In
0.000000 0.000000 0.140828 In
0.000000 0.100000 0.140828 In
0.000000 0.200000 0.140828 In
0.000000 0.300000 0.140828 In
0.000000 0.400000 0.140828 In
0.000000 0.500000 0.140828 In
0.000000 0.600000 0.140828 In
0.000000 0.700000 0.140828 In
0.000000 0.800000 0.140828 In
0.000000 0.900000 0.140828 In
0.500000 0.050000 0.140828 In
0.500000 0.150000 0.140828 In
0.500000 0.250000 0.140828 In
0.500000 0.350000 0.140828 In
0.500000 0.450000 0.140828 In
0.500000 0.550000 0.140828 In
0.500000 0.650000 0.140828 In
0.500000 0.750000 0.140828 In
0.500000 0.850000 0.140828 In
0.500000 0.950000 0.140828 In
0.000000 0.050000 0.115223 In
0.000000 0.150000 0.115223 In
0.000000 0.250000 0.115223 In
0.000000 0.350000 0.115223 In
0.000000 0.450000 0.115223 In
0.000000 0.550000 0.115223 In
0.000000 0.650000 0.115223 In
0.000000 0.750000 0.115223 In
0.000000 0.850000 0.115223 In
0.000000 0.950000 0.115223 In
0.500000 0.000000 0.115223 In
0.500000 0.100000 0.115223 In
0.500000 0.200000 0.115223 In
0.500000 0.300000 0.115223 In
0.500000 0.400000 0.115223 In
0.500000 0.500000 0.115223 In
0.500000 0.600000 0.115223 In
0.500000 0.700000 0.115223 In
0.500000 0.800000 0.115223 In
0.500000 0.900000 0.115223 In
0.000000 0.000000 0.089618 In
0.000000 0.100000 0.089618 In
0.000000 0.200000 0.089618 In
0.000000 0.300000 0.089618 In
0.000000 0.400000 0.089618 In
0.000000 0.500000 0.089618 In
0.000000 0.600000 0.089618 In
0.000000 0.700000 0.089618 In
0.000000 0.800000 0.089618 In
0.000000 0.900000 0.089618 In
0.500000 0.050000 0.089618 In
0.500000 0.150000 0.089618 In
0.500000 0.250000 0.089618 In
0.500000 0.350000 0.089618 In
0.500000 0.450000 0.089618 In
0.500000 0.550000 0.089618 In
0.500000 0.650000 0.089618 In
0.500000 0.750000 0.089618 In
0.500000 0.850000 0.089618 In
0.500000 0.950000 0.089618 In
0.000000 0.050000 0.064013 In
0.000000 0.150000 0.064013 In
0.000000 0.250000 0.064013 In
0.000000 0.350000 0.064013 In
0.000000 0.450000 0.064013 In
0.000000 0.550000 0.064013 In
0.000000 0.650000 0.064013 In
0.000000 0.750000 0.064013 In
0.000000 0.850000 0.064013 In
0.000000 0.950000 0.064013 In
0.500000 0.000000 0.064013 In
0.500000 0.100000 0.064013 In
0.500000 0.200000 0.064013 In
0.500000 0.300000 0.064013 In
0.500000 0.400000 0.064013 In
0.500000 0.500000 0.064013 In
0.500000 0.600000 0.064013 In
0.500000 0.700000 0.064013 In
0.500000 0.800000 0.064013 In
0.500000 0.900000 0.064013 In
0.000000 0.000000 0.038408 In
0.000000 0.100000 0.038408 In
0.000000 0.200000 0.038408 In
0.000000 0.300000 0.038408 In
0.000000 0.400000 0.038408 In
0.000000 0.500000 0.038408 In
0.000000 0.600000 0.038408 In
0.000000 0.700000 0.038408 In
0.000000 0.800000 0.038408 In
0.000000 0.900000 0.038408 In
0.500000 0.050000 0.038408 In
0.500000 0.150000 0.038408 In
0.500000 0.250000 0.038408 In
0.500000 0.350000 0.038408 In
0.500000 0.450000 0.038408 In
0.500000 0.550000 0.038408 In
0.500000 0.650000 0.038408 In
0.500000 0.750000 0.038408 In
0.500000 0.850000 0.038408 In
0.500000 0.950000 0.038408 In
0.125000 0.000000 0.762893 Sn
0.125000 0.090909 0.762893 Sn
0.125000 0.181818 0.762893 Sn
0.125000 0.272727 0.762893 Sn
0.125000 0.363636 0.762893 Sn
0.125000 0.454545 0.762893 Sn
0.125000 0.545455 0.762893 Sn
0.125000 0.636364 0.762893 Sn
0.125000 0.727273 0.762893 Sn
0.125000 0.818182 0.762893 Sn
0.125000 0.909091 0.762893 Sn
0.625000 0.000000 0.762893 Sn
0.625000 0.090909 0.762893 Sn
0.625000 0.181818 0.762893 Sn
0.625000 0.272727 0.762893 Sn
0.625000 0.363636 0.762893 Sn
0.625000 0.454545 0.762893 Sn
0.625000 0.545455 0.762893 Sn
0.625000 0.636364 0.762893 Sn
0.625000 0.727273 0.762893 Sn
0.625000 0.818182 0.762893 Sn
0.625000 0.909091 0.762893 Sn
0.250000 0.045455 0.762893 Sn
0.250000 0.136364 0.762893 Sn
0.250000 0.227273 0.762893 Sn
0.250000 0.318182 0.762893 Sn
0.250000 0.409091 0.762893 Sn
0.250000 0.500000 0.762893 Sn
0.250000 0.590909 0.762893 Sn
0.250000 0.681818 0.762893 Sn
0.250000 0.772727 0.762893 Sn
0.250000 0.863636 0.762893 Sn
0.250000 0.954545 0.762893 Sn
0.750000 0.045455 0.762893 Sn
0.750000 0.136364 0.762893 Sn
0.750000 0.227273 0.762893 Sn
0.750000 0.318182 0.762893 Sn
0.750000 0.409091 0.762893 Sn
0.750000 0.500000 0.762893 Sn
0.750000 0.590909 0.762893 Sn
0.750000 0.681818 0.762893 Sn
0.750000 0.772727 0.762893 Sn
0.750000 0.863636 0.762893 Sn
0.750000 0.954545 0.762893 Sn
0.000000 0.000000 0.739546 Sn
0.000000 0.090909 0.739546 Sn
0.000000 0.181818 0.739546 Sn
0.000000 0.272727 0.739546 Sn
0.000000 0.363636 0.739546 Sn
0.000000 0.454545 0.739546 Sn
0.000000 0.545455 0.739546 Sn
0.000000 0.636364 0.739546 Sn
0.000000 0.727273 0.739546 Sn
0.000000 0.818182 0.739546 Sn
0.000000 0.909091 0.739546 Sn
0.500000 0.000000 0.739546 Sn
0.500000 0.090909 0.739546 Sn
0.500000 0.181818 0.739546 Sn
0.500000 0.272727 0.739546 Sn
0.500000 0.363636 0.739546 Sn
0.500000 0.454545 0.739546 Sn
0.500000 0.545455 0.739546 Sn
0.500000 0.636364 0.739546 Sn
0.500000 0.727273 0.739546 Sn
0.500000 0.818182 0.739546 Sn
0.500000 0.909091 0.739546 Sn
0.375000 0.045455 0.739546 Sn
0.375000 0.136364 0.739546 Sn
0.375000 0.227273 0.739546 Sn
0.375000 0.318182 0.739546 Sn
0.375000 0.409091 0.739546 Sn
0.375000 0.500000 0.739546 Sn
0.375000 0.590909 0.739546 Sn
0.375000 0.681818 0.739546 Sn
0.375000 0.772727 0.739546 Sn
0.375000 0.863636 0.739546 Sn
0.375000 0.954545 0.739546 Sn
0.875000 0.045455 0.739546 Sn
0.875000 0.136364 0.739546 Sn
0.875000 0.227273 0.739546 Sn
0.875000 0.318182 0.739546 Sn
0.875000 0.409091 0.739546 Sn
0.875000 0.500000 0.739546 Sn
0.875000 0.590909 0.739546 Sn
0.875000 0.681818 0.739546 Sn
0.875000 0.772727 0.739546 Sn
0.875000 0.863636 0.739546 Sn
0.875000 0.954545 0.739546 Sn
0.125000 0.000000 0.716199 Sn
0.125000 0.090909 0.716199 Sn
0.125000 0.181818 0.716199 Sn
0.125000 0.272727 0.716199 Sn
0.125000 0.363636 0.716199 Sn
0.125000 0.454545 0.716199 Sn
0.125000 0.545455 0.716199 Sn
0.125000 0.636364 0.716199 Sn
0.125000 0.727273 0.716199 Sn
0.125000 0.818182 0.716199 Sn
0.125000 0.909091 0.716199 Sn
0.625000 0.000000 0.716199 Sn
0.625000 0.090909 0.716199 Sn
0.625000 0.181818 0.716199 Sn
0.625000 0.272727 0.716199 Sn
0.625000 0.363636 0.716199 Sn
0.625000 0.454545 0.716199 Sn
0.625000 0.545455 0.716199 Sn
0.625000 0.636364 0.716199 Sn
0.625000 0.727273 0.716199 Sn
0.625000 0.818182 0.716199 Sn
0.625000 0.909091 0.716199 Sn
0.250000 0.045455 0.716199 Sn
0.250000 0.136364 0.716199 Sn
0.250000 0.227273 0.716199 Sn
0.250000 0.318182 0.716199 Sn
0.250000 0.409091 0.716199 Sn
0.250000 0.500000 0.716199 Sn
0.250000 0.590909 0.716199 Sn
0.250000 0.681818 0.716199 Sn
0.250000 0.772727 0.716199 Sn
0.250000 0.863636 0.716199 Sn
0.250000 0.954545 0.716199 Sn
0.750000 0.045455 0.716199 Sn
0.750000 0.136364 0.716199 Sn
0.750000 0.227273 0.716199 Sn
0.750000 0.318182 0.716199 Sn
0.750000 0.409091 0.716199 Sn
0.750000 0.500000 0.716199 Sn
0.750000 0.590909 0.716199 Sn
0.750000 0.681818 0.716199 Sn
0.750000 0.772727 0.716199 Sn
0.750000 0.863636 0.716199 Sn
0.750000 0.954545 0.716199 Sn
0.000000 0.000000 0.692852 Sn
0.000000 0.090909 0.692852 Sn
0.000000 0.181818 0.692852 Sn
0.000000 0.272727 0.692852 Sn
0.000000 0.363636 0.692852 Sn
0.000000 0.454545 0.692852 Sn
0.000000 0.545455 0.692852 Sn
0.000000 0.636364 0.692852 Sn
0.000000 0.727273 0.692852 Sn
0.000000 0.818182 0.692852 Sn
0.000000 0.909091 0.692852 Sn
0.500000 0.000000 0.692852 Sn
0.500000 0.090909 0.692852 Sn
0.500000 0.181818 0.692852 Sn
0.500000 0.272727 0.692852 Sn
0.500000 0.363636 0.692852 Sn
0.500000 0.454545 0.692852 Sn
0.500000 0.545455 0.692852 Sn
0.500000 0.636364 0.692852 Sn
0.500000 0.727273 0.692852 Sn
0.500000 0.818182 0.692852 Sn
0.500000 0.909091 0.692852 Sn
0.375000 0.045455 0.692852 Sn
0.375000 0.136364 0.692852 Sn
0.375000 0.227273 0.692852 Sn
0.375000 0.318182 0.692852 Sn
0.375000 0.409091 0.692852 Sn
0.375000 0.500000 0.692852 Sn
0.375000 0.590909 0.692852 Sn
0.375000 0.681818 0.692852 Sn
0.375000 0.772727 0.692852 Sn
0.375000 0.863636 0.692852 Sn
0.375000 0.954545 0.692852 Sn
0.875000 0.045455 0.692852 Sn
0.875000 0.136364 0.692852 Sn
0.875000 0.227273 0.692852 Sn
0.875000 0.318182 0.692852 Sn
0.875000 0.409091 0.692852 Sn
0.875000 0.500000 0.692852 Sn
0.875000 0.590909 0.692852 Sn
0.875000 0.681818 0.692852 Sn
0.875000 0.772727 0.692852 Sn
0.875000 0.863636 0.692852 Sn
0.875000 0.954545 0.692852 Sn
0.125000 0.000000 0.669505 Sn
0.125000 0.090909 0.669505 Sn
0.125000 0.181818 0.669505 Sn
0.125000 0.272727 0.669505 Sn
0.125000 0.363636 0.669505 Sn
0.125000 0.454545 0.669505 Sn
0.125000 0.545455 0.669505 Sn
0.125000 0.636364 0.669505 Sn
0.125000 0.727273 0.669505 Sn
0.125000 0.818182 0.669505 Sn
0.125000 0.909091 0.669505 Sn
0.625000 0.000000 0.669505 Sn
0.625000 0.090909 0.669505 Sn
0.625000 0.181818 0.669505 Sn
0.625000 0.272727 0.669505 Sn
0.625000 0.363636 0.669505 Sn
0.625000 0.454545 0.669505 Sn
0.625000 0.545455 0.669505 Sn
0.625000 0.636364 0.669505 Sn
0.625000 0.727273 0.669505 Sn
0.625000 0.818182 0.669505 Sn
0.625000 0.909091 0.669505 Sn
0.250000 0.045455 0.669505 Sn
0.250000 0.136364 0.669505 Sn
0.250000 0.227273 0.669505 Sn
0.250000 0.318182 0.669505 Sn
0.250000 0.409091 0.669505 Sn
0.250000 0.500000 0.669505 Sn
0.250000 0.590909 0.669505 Sn
0.250000 0.681818 0.669505 Sn
0.250000 0.772727 0.669505 Sn
0.250000 0.863636 0.669505 Sn
0.250000 0.954545 0.669505 Sn
0.750000 0.045455 0.669505 Sn
0.750000 0.136364 0.669505 Sn
0.750000 0.227273 0.669505 Sn
0.750000 0.318182 0.669505 Sn
0.750000 0.409091 0.669505 Sn
0.750000 0.500000 0.669505 Sn
0.750000 0.590909 0.669505 Sn
0.750000 0.681818 0.669505 Sn
0.750000 0.772727 0.669505 Sn
0.750000 0.863636 0.669505 Sn
0.750000 0.954545 0.669505 Sn
0.000000 0.000000 0.646158 Sn
0.000000 0.090909 0.646158 Sn
0.000000 0.181818 0.646158 Sn
0.000000 0.272727 0.646158 Sn
0.000000 0.363636 0.646158 Sn
0.000000 0.454545 0.646158 Sn
0.000000 0.545455 0.646158 Sn
0.000000 0.636364 0.646158 Sn
0.000000 0.727273 0.646158 Sn
0.000000 0.818182 0.646158 Sn
0.000000 0.909091 0.646158 Sn
0.500000 0.000000 0.646158 Sn
0.500000 0.090909 0.646158 Sn
0.500000 0.181818 0.646158 Sn
0.500000 0.272727 0.646158 Sn
0.500000 0.363636 0.646158 Sn
0.500000 0.454545 0.646158 Sn
0.500000 0.545455 0.646158 Sn
0.500000 0.636364 0.646158 Sn
0.500000 0.727273 0.646158 Sn
0.500000 0.818182 0.646158 Sn
0.500000 0.909091 0.646158 Sn
0.375000 0.045455 0.646158 Sn
0.375000 0.136364 0.646158 Sn
0.375000 0.227273 0.646158 Sn
0.375000 0.318182 0.646158 Sn
0.375000 0.409091 0.646158 Sn
0.375000 0.500000 0.646158 Sn
0.375000 0.590909 0.646158 Sn
0.375000 0.681818 0.646158 Sn
0.375000 0.772727 0.646158 Sn
0.375000 0.863636 0.646158 Sn
0.375000 0.954545 0.646158 Sn
0.875000 0.045455 0.646158 Sn
0.875000 0.136364 0.646158 Sn
0.875000 0.227273 0.646158 Sn
0.875000 0.318182 0.646158 Sn
0.875000 0.409091 0.646158 Sn
0.875000 0.500000 0.646158 Sn
0.875000 0.590909 0.646158 Sn
0.875000 0.681818 0.646158 Sn
0.875000 0.772727 0.646158 Sn
0.875000 0.863636 0.646158 Sn
0.875000 0.954545 0.646158 Sn
0.125000 0.000000 0.622811 Sn
0.125000 0.090909 0.622811 Sn
0.125000 0.181818 0.622811 Sn
0.125000 0.272727 0.622811 Sn
0.125000 0.363636 0.622811 Sn
0.125000 0.454545 0.622811 Sn
0.125000 0.545455 0.622811 Sn
0.125000 0.636364 0.622811 Sn
0.125000 0.727273 0.622811 Sn
0.125000 0.818182 0.622811 Sn
0.125000 0.909091 0.622811 Sn
0.625000 0.000000 0.622811 Sn
0.625000 0.090909 0.622811 Sn
0.625000 0.181818 0.622811 Sn
0.625000 0.272727 0.622811 Sn
0.625000 0.363636 0.622811 Sn
0.625000 0.454545 0.622811 Sn
0.625000 0.545455 0.622811 Sn
0.625000 0.636364 0.622811 Sn
0.625000 0.727273 0.622811 Sn
0.625000 0.818182 0.622811 Sn
0.625000 0.909091 0.622811 Sn
0.250000 0.045455 0.622811 Sn
0.250000 0.136364 0.622811 Sn
0.250000 0.227273 0.622811 Sn
0.250000 0.318182 0.622811 Sn
0.250000 0.409091 0.622811 Sn
0.250000 0.500000 0.622811 Sn
0.250000 0.590909 0.622811 Sn
0.250000 0.681818 0.622811 Sn
0.250000 0.772727 0.622811 Sn
0.250000 0.863636 0.622811 Sn
0.250000 0.954545 0.622811 Sn
0.750000 0.045455 0.622811 Sn
0.750000 0.136364 0.622811 Sn
0.750000 0.227273 0.622811 Sn
0.750000 0.318182 0.622811 Sn
0.750000 0.409091 0.622811 Sn
0.750000 0.500000 0.622811 Sn
0.750000 0.590909 0.622811 Sn
0.750000 0.681818 0.622811 Sn
0.750000 0.772727 0.622811 Sn
0.750000 0.863636 0.622811 Sn
0.750000 0.954545 0.622811 Sn
0.000000 0.000000 0.599464 Sn
0.000000 0.090909 0.599464 Sn
0.000000 0.181818 0.599464 Sn
0.000000 0.272727 0.599464 Sn
0.000000 0.363636 0.599464 Sn
0.000000 0.454545 0.599464 Sn
0.000000 0.545455 0.599464 Sn
0.000000 0.636364 0.599464 Sn
0.000000 0.727273 0.599464 Sn
0.000000 0.818182 0.599464 Sn
0.000000 0.909091 0.599464 Sn
0.500000 0.000000 0.599464 Sn
0.500000 0.090909 0.599464 Sn
0.500000 0.181818 0.599464 Sn
0.500000 0.272727 0.599464 Sn
0.500000 0.363636 0.599464 Sn
0.500000 0.454545 0.599464 Sn
0.500000 0.545455 0.599464 Sn
0.500000 0.636364 0.599464 Sn
0.500000 0.727273 0.599464 Sn
0.500000 0.818182 0.599464 Sn
0.500000 0.909091 0.599464 Sn
0.375000 0.045455 0.599464 Sn
0.375000 0.136364 0.599464 Sn
0.375000 0.227273 0.599464 Sn
0.375000 0.318182 0.599464 Sn
0.375000 0.409091 0.599464 Sn
0.375000 0.500000 0.599464 Sn
0.375000 0.590909 0.599464 Sn
0.375000 0.681818 0.599464 Sn
0.375000 0.772727 0.599464 Sn
0.375000 0.863636 0.599464 Sn
0.375000 0.954545 0.599464 Sn
0.875000 0.045455 0.599464 Sn
0.875000 0.136364 0.599464 Sn
0.875000 0.227273 0.599464 Sn
0.875000 0.318182 0.599464 Sn
0.875000 0.409091 0.599464 Sn
0.875000 0.500000 0.599464 Sn
0.875000 0.590909 0.599464 Sn
0.875000 0.681818 0.599464 Sn
0.875000 0.772727 0.599464 Sn
0.875000 0.863636 0.599464 Sn
0.875000 0.954545 0.599464 Sn
0.125000 0.000000 0.576117 Sn
0.125000 0.090909 0.576117 Sn
0.125000 0.181818 0.576117 Sn
0.125000 0.272727 0.576117 Sn
0.125000 0.363636 0.576117 Sn
0.125000 0.454545 0.576117 Sn
0.125000 0.545455 0.576117 Sn
0.125000 0.636364 0.576117 Sn
0.125000 0.727273 0.576117 Sn
0.125000 0.818182 0.576117 Sn
0.125000 0.909091 0.576117 Sn
0.625000 0.000000 0.576117 Sn
0.625000 0.090909 0.576117 Sn
0.625000 0.181818 0.576117 Sn
0.625000 0.272727 0.576117 Sn
0.625000 0.363636 0.576117 Sn
0.625000 0.454545 0.576117 Sn
0.625000 0.545455 0.576117 Sn
0.625000 0.636364 0.576117 Sn
0.625000 0.727273 0.576117 Sn
0.625000 0.818182 0.576117 Sn
0.625000 0.909091 0.576117 Sn
0.250000 0.045455 0.576117 Sn
0.250000 0.136364 0.576117 Sn
0.250000 0.227273 0.576117 Sn
0.250000 0.318182 0.576117 Sn
0.250000 0.409091 0.576117 Sn
0.250000 0.500000 0.576117 Sn
0.250000 0.590909 0.576117 Sn
0.250000 0.681818 0.576117 Sn
0.250000 0.772727 0.576117 Sn
0.250000 0.863636 0.576117 Sn
0.250000 0.954545 0.576117 Sn
0.750000 0.045455 0.576117 Sn
0.750000 0.136364 0.576117 Sn
0.750000 0.227273 0.576117 Sn
0.750000 0.318182 0.576117 Sn
0.750000 0.409091 0.576117 Sn
0.750000 0.500000 0.576117 Sn
0.750000 0.590909 0.576117 Sn
0.750000 0.681818 0.576117 Sn
0.750000 0.772727 0.576117 Sn
0.750000 0.863636 0.576117 Sn
0.750000 0.954545 0.576117 Sn
0.000000 0.000000 0.552769 Sn
0.000000 0.090909 0.552769 Sn
0.000000 0.181818 0.552769 Sn
0.000000 0.272727 0.552769 Sn
0.000000 0.363636 0.552769 Sn
0.000000 0.454545 0.552769 Sn
0.000000 0.545455 0.552769 Sn
0.000000 0.636364 0.552769 Sn
0.000000 0.727273 0.552769 Sn
0.000000 0.818182 0.552769 Sn
0.000000 0.909091 0.552769 Sn
0.500000 0.000000 0.552769 Sn
0.500000 0.090909 0.552769 Sn
0.500000 0.181818 0.552769 Sn
0.500000 0.272727 0.552769 Sn
0.500000 0.363636 0.552769 Sn
0.500000 0.454545 0.552769 Sn
0.500000 0.545455 0.552769 Sn
0.500000 0.636364 0.552769 Sn
0.500000 0.727273 0.552769 Sn
0.500000 0.818182 0.552769 Sn
0.500000 0.909091 0.552769 Sn
0.375000 0.045455 0.552769 Sn
0.375000 0.136364 0.552769 Sn
0.375000 0.227273 0.552769 Sn
0.375000 0.318182 0.552769 Sn
0.375000 0.409091 0.552769 Sn
0.375000 0.500000 0.552769 Sn
0.375000 0.590909 0.552769 Sn
0.375000 0.681818 0.552769 Sn
0.375000 0.772727 0.552769 Sn
0.375000 0.863636 0.552769 Sn
0.375000 0.954545 0.552769 Sn
0.875000 0.045455 0.552769 Sn
0.875000 0.136364 0.552769 Sn
0.875000 0.227273 0.552769 Sn
0.875000 0.318182 0.552769 Sn
0.875000 0.409091 0.552769 Sn
0.875000 0.500000 0.552769 Sn
0.875000 0.590909 0.552769 Sn
0.875000 0.681818 0.552769 Sn
0.875000 0.772727 0.552769 Sn
0.875000 0.863636 0.552769 Sn
0.875000 0.954545 0.552769 Sn
0.125000 0.000000 0.529422 Sn
0.125000 0.090909 0.529422 Sn
0.125000 0.181818 0.529422 Sn
0.125000 0.272727 0.529422 Sn
0.125000 0.363636 0.529422 Sn
0.125000 0.454545 0.529422 Sn
0.125000 0.545455 0.529422 Sn
0.125000 0.636364 0.529422 Sn
0.125000 0.727273 0.529422 Sn
0.125000 0.818182 0.529422 Sn
0.125000 0.909091 0.529422 Sn
0.625000 0.000000 0.529422 Sn
0.625000 0.090909 0.529422 Sn
0.625000 0.181818 0.529422 Sn
0.625000 0.272727 0.529422 Sn
0.625000 0.363636 0.529422 Sn
0.625000 0.454545 0.529422 Sn
0.625000 0.545455 0.529422 Sn
0.625000 0.636364 0.529422 Sn
0.625000 0.727273 0.529422 Sn
0.625000 0.818182 0.529422 Sn
0.625000 0.909091 0.529422 Sn
0.250000 0.045455 0.529422 Sn
0.250000 0.136364 0.529422 Sn
0.250000 0.227273 0.529422 Sn
0.250000 0.318182 0.529422 Sn
0.250000 0.409091 0.529422 Sn
0.250000 0.500000 0.529422 Sn
0.250000 0.590909 0.529422 Sn
0.250000 0.681818 0.529422 Sn
0.250000 0.772727 0.529422 Sn
0.250000 0.863636 0.529422 Sn
0.250000 0.954545 0.529422 Sn
0.750000 0.045455 0.529422 Sn
0.750000 0.136364 0.529422 Sn
0.750000 0.227273 0.529422 Sn
0.750000 0.318182 0.529422 Sn
0.750000 0.409091 0.529422 Sn
0.750000 0.500000 0.529422 Sn
0.750000 0.590909 0.529422 Sn
0.750000 0.681818 0.529422 Sn
0.750000 0.772727 0.529422 Sn
0.750000 0.863636 0.529422 Sn
0.750000 0.954545 0.529422 Sn
0.000000 0.000000 0.506075 Sn
0.000000 0.090909 0.506075 Sn
0.000000 0.181818 0.506075 Sn
0.000000 0.272727 0.506075 Sn
0.000000 0.363636 0.506075 Sn
0.000000 0.454545 0.506075 Sn
0.000000 0.545455 0.506075 Sn
0.000000 0.636364 0.506075 Sn
0.000000 0.727273 0.506075 Sn
0.000000 0.818182 0.506075 Sn
0.000000 0.909091 0.506075 Sn
0.500000 0.000000 0.506075 Sn
0.500000 0.090909 0.506075 Sn
0.500000 0.181818 0.506075 Sn
0.500000 0.272727 0.506075 Sn
0.500000 0.363636 0.506075 Sn
0.500000 0.454545 0.506075 Sn
0.500000 0.545455 0.506075 Sn
0.500000 0.636364 0.506075 Sn
0.500000 0.727273 0.506075 Sn
0.500000 0.818182 0.506075 Sn
0.500000 0.909091 0.506075 Sn
0.375000 0.045455 0.506075 Sn
0.375000 0.136364 0.506075 Sn
0.375000 0.227273 0.506075 Sn
0.375000 0.318182 0.506075 Sn
0.375000 0.409091 0.506075 Sn
0.375000 0.500000 0.506075 Sn
0.375000 0.590909 0.506075 Sn
0.375000 0.681818 0.506075 Sn
0.375000 0.772727 0.506075 Sn
0.375000 0.863636 0.506075 Sn
0.375000 0.954545 0.506075 Sn
0.875000 0.045455 0.506075 Sn
0.875000 0.136364 0.506075 Sn
0.875000 0.227273 0.506075 Sn
0.875000 0.318182 0.506075 Sn
0.875000 0.409091 0.506075 Sn
0.875000 0.500000 0.506075 Sn
0.875000 0.590909 0.506075 Sn
0.875000 0.681818 0.506075 Sn
0.875000 0.772727 0.506075 Sn
0.875000 0.863636 0.506075 Sn
0.875000 0.954545 0.506075 Sn
0.125000 0.000000 0.482728 Sn
0.125000 0.090909 0.482728 Sn
0.125000 0.181818 0.482728 Sn
0.125000 0.272727 0.482728 Sn
0.125000 0.363636 0.482728 Sn
0.125000 0.454545 0.482728 Sn
0.125000 0.545455 0.482728 Sn
0.125000 0.636364 0.482728 Sn
0.125000 0.727273 0.482728 Sn
0.125000 0.818182 0.482728 Sn
0.125000 0.909091 0.482728 Sn
0.625000 0.000000 0.482728 Sn
0.625000 0.090909 0.482728 Sn
0.625000 0.181818 0.482728 Sn
0.625000 0.272727 0.482728 Sn
0.625000 0.363636 0.482728 Sn
0.625000 0.454545 0.482728 Sn
0.625000 0.545455 0.482728 Sn
0.625000 0.636364 0.482728 Sn
0.625000 0.727273 0.482728 Sn
0.625000 0.818182 0.482728 Sn
0.625000 0.909091 0.482728 Sn
0.250000 0.045455 0.482728 Sn
0.250000 0.136364 0.482728 Sn
0.250000 0.227273 0.482728 Sn
0.250000 0.318182 0.482728 Sn
0.250000 0.409091 0.482728 Sn
0.250000 0.500000 0.482728 Sn
0.250000 0.590909 0.482728 Sn
0.250000 0.681818 0.482728 Sn
0.250000 0.772727 0.482728 Sn
0.250000 0.863636 0.482728 Sn
0.250000 0.954545 0.482728 Sn
0.750000 0.045455 0.482728 Sn
0.750000 0.136364 0.482728 Sn
0.750000 0.227273 0.482728 Sn
0.750000 0.318182 0.482728 Sn
0.750000 0.409091 0.482728 Sn
0.750000 0.500000 0.482728 Sn
0.750000 0.590909 0.482728 Sn
0.750000 0.681818 0.482728 Sn
0.750000 0.772727 0.482728 Sn
0.750000 0.863636 0.482728 Sn
0.750000 0.954545 0.482728 Sn
0.000000 0.000000 0.459381 Sn
0.000000 0.090909 0.459381 Sn
0.000000 0.181818 0.459381 Sn
0.000000 0.272727 0.459381 Sn
0.000000 0.363636 0.459381 Sn
0.000000 0.454545 0.459381 Sn
0.000000 0.545455 0.459381 Sn
0.000000 0.636364 0.459381 Sn
0.000000 0.727273 0.459381 Sn
0.000000 0.818182 0.459381 Sn
0.000000 0.909091 0.459381 Sn
0.500000 0.000000 0.459381 Sn
0.500000 0.090909 0.459381 Sn
0.500000 0.181818 0.459381 Sn
0.500000 0.272727 0.459381 Sn
0.500000 0.363636 0.459381 Sn
0.500000 0.454545 0.459381 Sn
0.500000 0.545455 0.459381 Sn
0.500000 0.636364 0.459381 Sn
0.500000 0.727273 0.459381 Sn
0.500000 0.818182 0.459381 Sn
0.500000 0.909091 0.459381 Sn
0.375000 0.045455 0.459381 Sn
0.375000 0.136364 0.459381 Sn
0.375000 0.227273 0.459381 Sn
0.375000 0.318182 0.459381 Sn
0.375000 0.409091 0.459381 Sn
0.375000 0.500000 0.459381 Sn
0.375000 0.590909 0.459381 Sn
0.375000 0.681818 0.459381 Sn
0.375000 0.772727 0.459381 Sn
0.375000 0.863636 0.459381 Sn
0.375000 0.954545 0.459381 Sn
0.875000 0.045455 0.459381 Sn
0.875000 0.136364 0.459381 Sn
0.875000 0.227273 0.459381 Sn
0.875000 0.318182 0.459381 Sn
0.875000 0.409091 0.459381 Sn
0.875000 0.500000 0.459381 Sn
0.875000 0.590909 0.459381 Sn
0.875000 0.681818 0.459381 Sn
0.875000 0.772727 0.459381 Sn
0.875000 0.863636 0.459381 Sn
0.875000 0.954545 0.459381 Sn
0.125000 0.000000 0.436034 Sn
0.125000 0.090909 0.436034 Sn
0.125000 0.181818 0.436034 Sn
0.125000 0.272727 0.436034 Sn
0.125000 0.363636 0.436034 Sn
0.125000 0.454545 0.436034 Sn
0.125000 0.545455 0.436034 Sn
0.125000 0.636364 0.436034 Sn
0.125000 0.727273 0.436034 Sn
0.125000 0.818182 0.436034 Sn
0.125000 0.909091 0.436034 Sn
0.625000 0.000000 0.436034 Sn
0.625000 0.090909 0.436034 Sn
0.625000 0.181818 0.436034 Sn
0.625000 0.272727 0.436034 Sn
0.625000 0.363636 0.436034 Sn
0.625000 0.454545 0.436034 Sn
0.625000 0.545455 0.436034 Sn
0.625000 0.636364 0.436034 Sn
0.625000 0.727273 0.436034 Sn
0.625000 0.818182 0.436034 Sn
0.625000 0.909091 0.436034 Sn
0.250000 0.045455 0.436034 Sn
0.250000 0.136364 0.436034 Sn
0.250000 0.227273 0.436034 Sn
0.250000 0.318182 0.436034 Sn
0.250000 0.409091 0.436034 Sn
0.250000 0.500000 0.436034 Sn
0.250000 0.590909 0.436034 Sn
0.250000 0.681818 0.436034 Sn
0.250000 0.772727 0.436034 Sn
0.250000 0.863636 0.436034 Sn
0.250000 0.954545 0.436034 Sn
0.750000 0.045455 0.436034 Sn
0.750000 0.136364 0.436034 Sn
0.750000 0.227273 0.436034 Sn
0.750000 0.318182 0.436034 Sn
0.750000 0.409091 0.436034 Sn
0.750000 0.500000 0.436034 Sn
0.750000 0.590909 0.436034 Sn
0.750000 0.681818 0.436034 Sn
0.750000 0.772727 0.436034 Sn
0.750000 0.863636 0.436034 Sn
0.750000 0.954545 0.436034 Sn
0.000000 0.000000 0.412687 Sn
0.000000 0.090909 0.412687 Sn
0.000000 0.181818 0.412687 Sn
0.000000 0.272727 0.412687 Sn
0.000000 0.363636 0.412687 Sn
0.000000 0.454545 0.412687 Sn
0.000000 0.545455 0.412687 Sn
0.000000 0.636364 0.412687 Sn
0.000000 0.727273 0.412687 Sn
0.000000 0.818182 0.412687 Sn
0.000000 0.909091 0.412687 Sn
0.500000 0.000000 0.412687 Sn
0.500000 0.090909 0.412687 Sn
0.500000 0.181818 0.412687 Sn
0.500000 0.272727 0.412687 Sn
0.500000 0.363636 0.412687 Sn
0.500000 0.454545 0.412687 Sn
0.500000 0.545455 0.412687 Sn
0.500000 0.636364 0.412687 Sn
0.500000 0.727273 0.412687 Sn
0.500000 0.818182 0.412687 Sn
0.500000 0.909091 0.412687 Sn
0.375000 0.045455 0.412687 Sn
0.375000 0.136364 0.412687 Sn
0.375000 0.227273 0.412687 Sn
0.375000 0.318182 0.412687 Sn
0.375000 0.409091 0.412687 Sn
0.375000 0.500000 0.412687 Sn
0.375000 0.590909 0.412687 Sn
0.375000 0.681818 0.412687 Sn
0.375000 0.772727 0.412687 Sn
0.375000 0.863636 0.412687 Sn
0.375000 0.954545 0.412687 Sn
0.875000 0.045455 0.412687 Sn
0.875000 0.136364 0.412687 Sn