In8 Sb8
1.0
6.479400 0.000000 0.000000
0.000000 6.479400 0.000000
0.000000 0.000000 21.338950
In Sb
8 8
direct
0.000000 0.000000 0.386134 In
0.500000 0.500000 0.386134 In
0.000000 0.500000 0.234313 In
0.500000 0.000000 0.234313 In
0.000000 0.000000 0.689776 In
0.500000 0.500000 0.689776 In
0.000000 0.500000 0.537955 In
0.500000 0.000000 0.537955 In
0.250000 0.250000 0.462045 Sb
0.750000 0.750000 0.462045 Sb
0.250000 0.750000 0.310224 Sb
0.750000 0.250000 0.310224 Sb
0.250000 0.250000 0.765687 Sb
0.750000 0.750000 0.765687 Sb
0.250000 0.750000 0.613866 Sb
0.750000 0.250000 0.613866 Sb
