Eu765 In648 Sb720 H314 S765
1.0
38.876400 -0.000000 -0.000000
-0.000000 38.876400 -0.000000
-0.000000 -0.000000 109.833150
Eu In Sb H S
765 648 720 314 765
direct
0.000000 0.000000 0.517596 Eu
0.152941 0.011765 0.517596 Eu
0.305882 0.023529 0.517596 Eu
0.458824 0.035294 0.517596 Eu
0.611765 0.047059 0.517596 Eu
0.764706 0.058824 0.517596 Eu
0.917647 0.070588 0.517596 Eu
0.070588 0.082353 0.517596 Eu
0.223529 0.094118 0.517596 Eu
0.376471 0.105882 0.517596 Eu
0.529412 0.117647 0.517596 Eu
0.682353 0.129412 0.517596 Eu
0.835294 0.141176 0.517596 Eu
0.988235 0.152941 0.517596 Eu
0.141176 0.164706 0.517596 Eu
0.294118 0.176471 0.517596 Eu
0.447059 0.188235 0.517596 Eu
0.600000 0.200000 0.517596 Eu
0.752941 0.211765 0.517596 Eu
0.905882 0.223529 0.517596 Eu
0.058824 0.235294 0.517596 Eu
0.211765 0.247059 0.517596 Eu
0.364706 0.258824 0.517596 Eu
0.517647 0.270588 0.517596 Eu
0.670588 0.282353 0.517596 Eu
0.823529 0.294118 0.517596 Eu
0.976471 0.305882 0.517596 Eu
0.129412 0.317647 0.517596 Eu
0.282353 0.329412 0.517596 Eu
0.435294 0.341176 0.517596 Eu
0.588235 0.352941 0.517596 Eu
0.741176 0.364706 0.517596 Eu
0.894118 0.376471 0.517596 Eu
0.047059 0.388235 0.517596 Eu
0.200000 0.400000 0.517596 Eu
0.352941 0.411765 0.517596 Eu
0.505882 0.423529 0.517596 Eu
0.658824 0.435294 0.517596 Eu
0.811765 0.447059 0.517596 Eu
0.964706 0.458824 0.517596 Eu
0.117647 0.470588 0.517596 Eu
0.270588 0.482353 0.517596 Eu
0.423529 0.494118 0.517596 Eu
0.576471 0.505882 0.517596 Eu
0.729412 0.517647 0.517596 Eu
0.882353 0.529412 0.517596 Eu
0.035294 0.541176 0.517596 Eu
0.188235 0.552941 0.517596 Eu
0.341176 0.564706 0.517596 Eu
0.494118 0.576471 0.517596 Eu
0.647059 0.588235 0.517596 Eu
0.800000 0.600000 0.517596 Eu
0.952941 0.611765 0.517596 Eu
0.105882 0.623529 0.517596 Eu
0.258824 0.635294 0.517596 Eu
0.411765 0.647059 0.517596 Eu
0.564706 0.658824 0.517596 Eu
0.717647 0.670588 0.517596 Eu
0.870588 0.682353 0.517596 Eu
0.023529 0.694118 0.517596 Eu
0.176471 0.705882 0.517596 Eu
0.329412 0.717647 0.517596 Eu
0.482353 0.729412 0.517596 Eu
0.635294 0.741176 0.517596 Eu
0.788235 0.752941 0.517596 Eu
0.941176 0.764706 0.517596 Eu
0.094118 0.776471 0.517596 Eu
0.247059 0.788235 0.517596 Eu
0.400000 0.800000 0.517596 Eu
0.552941 0.811765 0.517596 Eu
0.705882 0.823529 0.517596 Eu
0.858824 0.835294 0.517596 Eu
0.011765 0.847059 0.517596 Eu
0.164706 0.858824 0.517596 Eu
0.317647 0.870588 0.517596 Eu
0.470588 0.882353 0.517596 Eu
0.623529 0.894118 0.517596 Eu
0.776471 0.905882 0.517596 Eu
0.929412 0.917647 0.517596 Eu
0.082353 0.929412 0.517596 Eu
0.235294 0.941176 0.517596 Eu
0.388235 0.952941 0.517596 Eu
0.541176 0.964706 0.517596 Eu
0.694118 0.976471 0.517596 Eu
0.847059 0.988235 0.517596 Eu
0.076471 0.005882 0.490427 Eu
0.229412 0.017647 0.490427 Eu
0.382353 0.029412 0.490427 Eu
0.535294 0.041176 0.490427 Eu
0.688235 0.052941 0.490427 Eu
0.841176 0.064706 0.490427 Eu
0.994118 0.076471 0.490427 Eu
0.147059 0.088235 0.490427 Eu
0.300000 0.100000 0.490427 Eu
0.452941 0.111765 0.490427 Eu
0.605882 0.123529 0.490427 Eu
0.758824 0.135294 0.490427 Eu
0.911765 0.147059 0.490427 Eu
0.064706 0.158824 0.490427 Eu
0.217647 0.170588 0.490427 Eu
0.370588 0.182353 0.490427 Eu
0.523529 0.194118 0.490427 Eu
0.676471 0.205882 0.490427 Eu
0.829412 0.217647 0.490427 Eu
0.982353 0.229412 0.490427 Eu
0.135294 0.241176 0.490427 Eu
0.288235 0.252941 0.490427 Eu
0.441176 0.264706 0.490427 Eu
0.594118 0.276471 0.490427 Eu
0.747059 0.288235 0.490427 Eu
0.900000 0.300000 0.490427 Eu
0.052941 0.311765 0.490427 Eu
0.205882 0.323529 0.490427 Eu
0.358824 0.335294 0.490427 Eu
0.511765 0.347059 0.490427 Eu
0.664706 0.358824 0.490427 Eu
0.817647 0.370588 0.490427 Eu
0.970588 0.382353 0.490427 Eu
0.123529 0.394118 0.490427 Eu
0.276471 0.405882 0.490427 Eu
0.429412 0.417647 0.490427 Eu
0.582353 0.429412 0.490427 Eu
0.735294 0.441176 0.490427 Eu
0.888235 0.452941 0.490427 Eu
0.041176 0.464706 0.490427 Eu
0.194118 0.476471 0.490427 Eu
0.347059 0.488235 0.490427 Eu
0.500000 0.500000 0.490427 Eu
0.652941 0.511765 0.490427 Eu
0.805882 0.523529 0.490427 Eu
0.958824 0.535294 0.490427 Eu
0.111765 0.547059 0.490427 Eu
0.264706 0.558824 0.490427 Eu
0.417647 0.570588 0.490427 Eu
0.570588 0.582353 0.490427 Eu
0.723529 0.594118 0.490427 Eu
0.876471 0.605882 0.490427 Eu
0.029412 0.617647 0.490427 Eu
0.182353 0.629412 0.490427 Eu
0.335294 0.641176 0.490427 Eu
0.488235 0.652941 0.490427 Eu
0.641176 0.664706 0.490427 Eu
0.794118 0.676471 0.490427 Eu
0.947059 0.688235 0.490427 Eu
0.100000 0.700000 0.490427 Eu
0.252941 0.711765 0.490427 Eu
0.405882 0.723529 0.490427 Eu
0.558824 0.735294 0.490427 Eu
0.711765 0.747059 0.490427 Eu
0.864706 0.758824 0.490427 Eu
0.017647 0.770588 0.490427 Eu
0.170588 0.782353 0.490427 Eu
0.323529 0.794118 0.490427 Eu
0.476471 0.805882 0.490427 Eu
0.629412 0.817647 0.490427 Eu
0.782353 0.829412 0.490427 Eu
0.935294 0.841176 0.490427 Eu
0.088235 0.852941 0.490427 Eu
0.241176 0.864706 0.490427 Eu
0.394118 0.876471 0.490427 Eu
0.547059 0.888235 0.490427 Eu
0.700000 0.900000 0.490427 Eu
0.852941 0.911765 0.490427 Eu
0.005882 0.923529 0.490427 Eu
0.158824 0.935294 0.490427 Eu
0.311765 0.947059 0.490427 Eu
0.464706 0.958824 0.490427 Eu
0.617647 0.970588 0.490427 Eu
0.770588 0.982353 0.490427 Eu
0.923529 0.994118 0.490427 Eu
0.000000 0.000000 0.463259 Eu
0.152941 0.011765 0.463259 Eu
0.305882 0.023529 0.463259 Eu
0.458824 0.035294 0.463259 Eu
0.611765 0.047059 0.463259 Eu
0.764706 0.058824 0.463259 Eu
0.917647 0.070588 0.463259 Eu
0.070588 0.082353 0.463259 Eu
0.223529 0.094118 0.463259 Eu
0.376471 0.105882 0.463259 Eu
0.529412 0.117647 0.463259 Eu
0.682353 0.129412 0.463259 Eu
0.835294 0.141176 0.463259 Eu
0.988235 0.152941 0.463259 Eu
0.141176 0.164706 0.463259 Eu
0.294118 0.176471 0.463259 Eu
0.447059 0.188235 0.463259 Eu
0.600000 0.200000 0.463259 Eu
0.752941 0.211765 0.463259 Eu
0.905882 0.223529 0.463259 Eu
0.058824 0.235294 0.463259 Eu
0.211765 0.247059 0.463259 Eu
0.364706 0.258824 0.463259 Eu
0.517647 0.270588 0.463259 Eu
0.670588 0.282353 0.463259 Eu
0.823529 0.294118 0.463259 Eu
0.976471 0.305882 0.463259 Eu
0.129412 0.317647 0.463259 Eu
0.282353 0.329412 0.463259 Eu
0.435294 0.341176 0.463259 Eu
0.588235 0.352941 0.463259 Eu
0.741176 0.364706 0.463259 Eu
0.894118 0.376471 0.463259 Eu
0.047059 0.388235 0.463259 Eu
0.200000 0.400000 0.463259 Eu
0.352941 0.411765 0.463259 Eu
0.505882 0.423529 0.463259 Eu
0.658824 0.435294 0.463259 Eu
0.811765 0.447059 0.463259 Eu
0.964706 0.458824 0.463259 Eu
0.117647 0.470588 0.463259 Eu
0.270588 0.482353 0.463259 Eu
0.423529 0.494118 0.463259 Eu
0.576471 0.505882 0.463259 Eu
0.729412 0.517647 0.463259 Eu
0.882353 0.529412 0.463259 Eu
0.035294 0.541176 0.463259 Eu
0.188235 0.552941 0.463259 Eu
0.341176 0.564706 0.463259 Eu
0.494118 0.576471 0.463259 Eu
0.647059 0.588235 0.463259 Eu
0.800000 0.600000 0.463259 Eu
0.952941 0.611765 0.463259 Eu
0.105882 0.623529 0.463259 Eu
0.258824 0.635294 0.463259 Eu
0.411765 0.647059 0.463259 Eu
0.564706 0.658824 0.463259 Eu
0.717647 0.670588 0.463259 Eu
0.870588 0.682353 0.463259 Eu
0.023529 0.694118 0.463259 Eu
0.176471 0.705882 0.463259 Eu
0.329412 0.717647 0.463259 Eu
0.482353 0.729412 0.463259 Eu
0.635294 0.741176 0.463259 Eu
0.788235 0.752941 0.463259 Eu
0.941176 0.764706 0.463259 Eu
0.094118 0.776471 0.463259 Eu
0.247059 0.788235 0.463259 Eu
0.400000 0.800000 0.463259 Eu
0.552941 0.811765 0.463259 Eu
0.705882 0.823529 0.463259 Eu
0.858824 0.835294 0.463259 Eu
0.011765 0.847059 0.463259 Eu
0.164706 0.858824 0.463259 Eu
0.317647 0.870588 0.463259 Eu
0.470588 0.882353 0.463259 Eu
0.623529 0.894118 0.463259 Eu
0.776471 0.905882 0.463259 Eu
0.929412 0.917647 0.463259 Eu
0.082353 0.929412 0.463259 Eu
0.235294 0.941176 0.463259 Eu
0.388235 0.952941 0.463259 Eu
0.541176 0.964706 0.463259 Eu
0.694118 0.976471 0.463259 Eu
0.847059 0.988235 0.463259 Eu
0.076471 0.005882 0.436090 Eu
0.229412 0.017647 0.436090 Eu
0.382353 0.029412 0.436090 Eu
0.535294 0.041176 0.436090 Eu
0.688235 0.052941 0.436090 Eu
0.841176 0.064706 0.436090 Eu
0.994118 0.076471 0.436090 Eu
0.147059 0.088235 0.436090 Eu
0.300000 0.100000 0.436090 Eu
0.452941 0.111765 0.436090 Eu
0.605882 0.123529 0.436090 Eu
0.758824 0.135294 0.436090 Eu
0.911765 0.147059 0.436090 Eu
0.064706 0.158824 0.436090 Eu
0.217647 0.170588 0.436090 Eu
0.370588 0.182353 0.436090 Eu
0.523529 0.194118 0.436090 Eu
0.676471 0.205882 0.436090 Eu
0.829412 0.217647 0.436090 Eu
0.982353 0.229412 0.436090 Eu
0.135294 0.241176 0.436090 Eu
0.288235 0.252941 0.436090 Eu
0.441176 0.264706 0.436090 Eu
0.594118 0.276471 0.436090 Eu
0.747059 0.288235 0.436090 Eu
0.900000 0.300000 0.436090 Eu
0.052941 0.311765 0.436090 Eu
0.205882 0.323529 0.436090 Eu
0.358824 0.335294 0.436090 Eu
0.511765 0.347059 0.436090 Eu
0.664706 0.358824 0.436090 Eu
0.817647 0.370588 0.436090 Eu
0.970588 0.382353 0.436090 Eu
0.123529 0.394118 0.436090 Eu
0.276471 0.405882 0.436090 Eu
0.429412 0.417647 0.436090 Eu
0.582353 0.429412 0.436090 Eu
0.735294 0.441176 0.436090 Eu
0.888235 0.452941 0.436090 Eu
0.041176 0.464706 0.436090 Eu
0.194118 0.476471 0.436090 Eu
0.347059 0.488235 0.436090 Eu
0.500000 0.500000 0.436090 Eu
0.652941 0.511765 0.436090 Eu
0.805882 0.523529 0.436090 Eu
0.958824 0.535294 0.436090 Eu
0.111765 0.547059 0.436090 Eu
0.264706 0.558824 0.436090 Eu
0.417647 0.570588 0.436090 Eu
0.570588 0.582353 0.436090 Eu
0.723529 0.594118 0.436090 Eu
0.876471 0.605882 0.436090 Eu
0.029412 0.617647 0.436090 Eu
0.182353 0.629412 0.436090 Eu
0.335294 0.641176 0.436090 Eu
0.488235 0.652941 0.436090 Eu
0.641176 0.664706 0.436090 Eu
0.794118 0.676471 0.436090 Eu
0.947059 0.688235 0.436090 Eu
0.100000 0.700000 0.436090 Eu
0.252941 0.711765 0.436090 Eu
0.405882 0.723529 0.436090 Eu
0.558824 0.735294 0.436090 Eu
0.711765 0.747059 0.436090 Eu
0.864706 0.758824 0.436090 Eu
0.017647 0.770588 0.436090 Eu
0.170588 0.782353 0.436090 Eu
0.323529 0.794118 0.436090 Eu
0.476471 0.805882 0.436090 Eu
0.629412 0.817647 0.436090 Eu
0.782353 0.829412 0.436090 Eu
0.935294 0.841176 0.436090 Eu
0.088235 0.852941 0.436090 Eu
0.241176 0.864706 0.436090 Eu
0.394118 0.876471 0.436090 Eu
0.547059 0.888235 0.436090 Eu
0.700000 0.900000 0.436090 Eu
0.852941 0.911765 0.436090 Eu
0.005882 0.923529 0.436090 Eu
0.158824 0.935294 0.436090 Eu
0.311765 0.947059 0.436090 Eu
0.464706 0.958824 0.436090 Eu
0.617647 0.970588 0.436090 Eu
0.770588 0.982353 0.436090 Eu
0.923529 0.994118 0.436090 Eu
0.000000 0.000000 0.408922 Eu
0.152941 0.011765 0.408922 Eu
0.305882 0.023529 0.408922 Eu
0.458824 0.035294 0.408922 Eu
0.611765 0.047059 0.408922 Eu
0.764706 0.058824 0.408922 Eu
0.917647 0.070588 0.408922 Eu
0.070588 0.082353 0.408922 Eu
0.223529 0.094118 0.408922 Eu
0.376471 0.105882 0.408922 Eu
0.529412 0.117647 0.408922 Eu
0.682353 0.129412 0.408922 Eu
0.835294 0.141176 0.408922 Eu
0.988235 0.152941 0.408922 Eu
0.141176 0.164706 0.408922 Eu
0.294118 0.176471 0.408922 Eu
0.447059 0.188235 0.408922 Eu
0.600000 0.200000 0.408922 Eu
0.752941 0.211765 0.408922 Eu
0.905882 0.223529 0.408922 Eu
0.058824 0.235294 0.408922 Eu
0.211765 0.247059 0.408922 Eu
0.364706 0.258824 0.408922 Eu
0.517647 0.270588 0.408922 Eu
0.670588 0.282353 0.408922 Eu
0.823529 0.294118 0.408922 Eu
0.976471 0.305882 0.408922 Eu
0.129412 0.317647 0.408922 Eu
0.282353 0.329412 0.408922 Eu
0.435294 0.341176 0.408922 Eu
0.588235 0.352941 0.408922 Eu
0.741176 0.364706 0.408922 Eu
0.894118 0.376471 0.408922 Eu
0.047059 0.388235 0.408922 Eu
0.200000 0.400000 0.408922 Eu
0.352941 0.411765 0.408922 Eu
0.505882 0.423529 0.408922 Eu
0.658824 0.435294 0.408922 Eu
0.811765 0.447059 0.408922 Eu
0.964706 0.458824 0.408922 Eu
0.117647 0.470588 0.408922 Eu
0.270588 0.482353 0.408922 Eu
0.423529 0.494118 0.408922 Eu
0.576471 0.505882 0.408922 Eu
0.729412 0.517647 0.408922 Eu
0.882353 0.529412 0.408922 Eu
0.035294 0.541176 0.408922 Eu
0.188235 0.552941 0.408922 Eu
0.341176 0.564706 0.408922 Eu
0.494118 0.576471 0.408922 Eu
0.647059 0.588235 0.408922 Eu
0.800000 0.600000 0.408922 Eu
0.952941 0.611765 0.408922 Eu
0.105882 0.623529 0.408922 Eu
0.258824 0.635294 0.408922 Eu
0.411765 0.647059 0.408922 Eu
0.564706 0.658824 0.408922 Eu
0.717647 0.670588 0.408922 Eu
0.870588 0.682353 0.408922 Eu
0.023529 0.694118 0.408922 Eu
0.176471 0.705882 0.408922 Eu
0.329412 0.717647 0.408922 Eu
0.482353 0.729412 0.408922 Eu
0.635294 0.741176 0.408922 Eu
0.788235 0.752941 0.408922 Eu
0.941176 0.764706 0.408922 Eu
0.094118 0.776471 0.408922 Eu
0.247059 0.788235 0.408922 Eu
0.400000 0.800000 0.408922 Eu
0.552941 0.811765 0.408922 Eu
0.705882 0.823529 0.408922 Eu
0.858824 0.835294 0.408922 Eu
0.011765 0.847059 0.408922 Eu
0.164706 0.858824 0.408922 Eu
0.317647 0.870588 0.408922 Eu
0.470588 0.882353 0.408922 Eu
0.623529 0.894118 0.408922 Eu
0.776471 0.905882 0.408922 Eu
0.929412 0.917647 0.408922 Eu
0.082353 0.929412 0.408922 Eu
0.235294 0.941176 0.408922 Eu
0.388235 0.952941 0.408922 Eu
0.541176 0.964706 0.408922 Eu
0.694118 0.976471 0.408922 Eu
0.847059 0.988235 0.408922 Eu
0.076471 0.005882 0.381753 Eu
0.229412 0.017647 0.381753 Eu
0.382353 0.029412 0.381753 Eu
0.535294 0.041176 0.381753 Eu
0.688235 0.052941 0.381753 Eu
0.841176 0.064706 0.381753 Eu
0.994118 0.076471 0.381753 Eu
0.147059 0.088235 0.381753 Eu
0.300000 0.100000 0.381753 Eu
0.452941 0.111765 0.381753 Eu
0.605882 0.123529 0.381753 Eu
0.758824 0.135294 0.381753 Eu
0.911765 0.147059 0.381753 Eu
0.064706 0.158824 0.381753 Eu
0.217647 0.170588 0.381753 Eu
0.370588 0.182353 0.381753 Eu
0.523529 0.194118 0.381753 Eu
0.676471 0.205882 0.381753 Eu
0.829412 0.217647 0.381753 Eu
0.982353 0.229412 0.381753 Eu
0.135294 0.241176 0.381753 Eu
0.288235 0.252941 0.381753 Eu
0.441176 0.264706 0.381753 Eu
0.594118 0.276471 0.381753 Eu
0.747059 0.288235 0.381753 Eu
0.900000 0.300000 0.381753 Eu
0.052941 0.311765 0.381753 Eu
0.205882 0.323529 0.381753 Eu
0.358824 0.335294 0.381753 Eu
0.511765 0.347059 0.381753 Eu
0.664706 0.358824 0.381753 Eu
0.817647 0.370588 0.381753 Eu
0.970588 0.382353 0.381753 Eu
0.123529 0.394118 0.381753 Eu
0.276471 0.405882 0.381753 Eu
0.429412 0.417647 0.381753 Eu
0.582353 0.429412 0.381753 Eu
0.735294 0.441176 0.381753 Eu
0.888235 0.452941 0.381753 Eu
0.041176 0.464706 0.381753 Eu
0.194118 0.476471 0.381753 Eu
0.347059 0.488235 0.381753 Eu
0.500000 0.500000 0.381753 Eu
0.652941 0.511765 0.381753 Eu
0.805882 0.523529 0.381753 Eu
0.958824 0.535294 0.381753 Eu
0.111765 0.547059 0.381753 Eu
0.264706 0.558824 0.381753 Eu
0.417647 0.570588 0.381753 Eu
0.570588 0.582353 0.381753 Eu
0.723529 0.594118 0.381753 Eu
0.876471 0.605882 0.381753 Eu
0.029412 0.617647 0.381753 Eu
0.182353 0.629412 0.381753 Eu
0.335294 0.641176 0.381753 Eu
0.488235 0.652941 0.381753 Eu
0.641176 0.664706 0.381753 Eu
0.794118 0.676471 0.381753 Eu
0.947059 0.688235 0.381753 Eu
0.100000 0.700000 0.381753 Eu
0.252941 0.711765 0.381753 Eu
0.405882 0.723529 0.381753 Eu
0.558824 0.735294 0.381753 Eu
0.711765 0.747059 0.381753 Eu
0.864706 0.758824 0.381753 Eu
0.017647 0.770588 0.381753 Eu
0.170588 0.782353 0.381753 Eu
0.323529 0.794118 0.381753 Eu
0.476471 0.805882 0.381753 Eu
0.629412 0.817647 0.381753 Eu
0.782353 0.829412 0.381753 Eu
0.935294 0.841176 0.381753 Eu
0.088235 0.852941 0.381753 Eu
0.241176 0.864706 0.381753 Eu
0.394118 0.876471 0.381753 Eu
0.547059 0.888235 0.381753 Eu
0.700000 0.900000 0.381753 Eu
0.852941 0.911765 0.381753 Eu
0.005882 0.923529 0.381753 Eu
0.158824 0.935294 0.381753 Eu
0.311765 0.947059 0.381753 Eu
0.464706 0.958824 0.381753 Eu
0.617647 0.970588 0.381753 Eu
0.770588 0.982353 0.381753 Eu
0.923529 0.994118 0.381753 Eu
0.000000 0.000000 0.354585 Eu
0.152941 0.011765 0.354585 Eu
0.305882 0.023529 0.354585 Eu
0.458824 0.035294 0.354585 Eu
0.611765 0.047059 0.354585 Eu
0.764706 0.058824 0.354585 Eu
0.917647 0.070588 0.354585 Eu
0.070588 0.082353 0.354585 Eu
0.223529 0.094118 0.354585 Eu
0.376471 0.105882 0.354585 Eu
0.529412 0.117647 0.354585 Eu
0.682353 0.129412 0.354585 Eu
0.835294 0.141176 0.354585 Eu
0.988235 0.152941 0.354585 Eu
0.141176 0.164706 0.354585 Eu
0.294118 0.176471 0.354585 Eu
0.447059 0.188235 0.354585 Eu
0.600000 0.200000 0.354585 Eu
0.752941 0.211765 0.354585 Eu
0.905882 0.223529 0.354585 Eu
0.058824 0.235294 0.354585 Eu
0.211765 0.247059 0.354585 Eu
0.364706 0.258824 0.354585 Eu
0.517647 0.270588 0.354585 Eu
0.670588 0.282353 0.354585 Eu
0.823529 0.294118 0.354585 Eu
0.976471 0.305882 0.354585 Eu
0.129412 0.317647 0.354585 Eu
0.282353 0.329412 0.354585 Eu
0.435294 0.341176 0.354585 Eu
0.588235 0.352941 0.354585 Eu
0.741176 0.364706 0.354585 Eu
0.894118 0.376471 0.354585 Eu
0.047059 0.388235 0.354585 Eu
0.200000 0.400000 0.354585 Eu
0.352941 0.411765 0.354585 Eu
0.505882 0.423529 0.354585 Eu
0.658824 0.435294 0.354585 Eu
0.811765 0.447059 0.354585 Eu
0.964706 0.458824 0.354585 Eu
0.117647 0.470588 0.354585 Eu
0.270588 0.482353 0.354585 Eu
0.423529 0.494118 0.354585 Eu
0.576471 0.505882 0.354585 Eu
0.729412 0.517647 0.354585 Eu
0.882353 0.529412 0.354585 Eu
0.035294 0.541176 0.354585 Eu
0.188235 0.552941 0.354585 Eu
0.341176 0.564706 0.354585 Eu
0.494118 0.576471 0.354585 Eu
0.647059 0.588235 0.354585 Eu
0.800000 0.600000 0.354585 Eu
0.952941 0.611765 0.354585 Eu
0.105882 0.623529 0.354585 Eu
0.258824 0.635294 0.354585 Eu
0.411765 0.647059 0.354585 Eu
0.564706 0.658824 0.354585 Eu
0.717647 0.670588 0.354585 Eu
0.870588 0.682353 0.354585 Eu
0.023529 0.694118 0.354585 Eu
0.176471 0.705882 0.354585 Eu
0.329412 0.717647 0.354585 Eu
0.482353 0.729412 0.354585 Eu
0.635294 0.741176 0.354585 Eu
0.788235 0.752941 0.354585 Eu
0.941176 0.764706 0.354585 Eu
0.094118 0.776471 0.354585 Eu
0.247059 0.788235 0.354585 Eu
0.400000 0.800000 0.354585 Eu
0.552941 0.811765 0.354585 Eu
0.705882 0.823529 0.354585 Eu
0.858824 0.835294 0.354585 Eu
0.011765 0.847059 0.354585 Eu
0.164706 0.858824 0.354585 Eu
0.317647 0.870588 0.354585 Eu
0.470588 0.882353 0.354585 Eu
0.623529 0.894118 0.354585 Eu
0.776471 0.905882 0.354585 Eu
0.929412 0.917647 0.354585 Eu
0.082353 0.929412 0.354585 Eu
0.235294 0.941176 0.354585 Eu
0.388235 0.952941 0.354585 Eu
0.541176 0.964706 0.354585 Eu
0.694118 0.976471 0.354585 Eu
0.847059 0.988235 0.354585 Eu
0.076471 0.005882 0.327416 Eu
0.229412 0.017647 0.327416 Eu
0.382353 0.029412 0.327416 Eu
0.535294 0.041176 0.327416 Eu
0.688235 0.052941 0.327416 Eu
0.841176 0.064706 0.327416 Eu
0.994118 0.076471 0.327416 Eu
0.147059 0.088235 0.327416 Eu
0.300000 0.100000 0.327416 Eu
0.452941 0.111765 0.327416 Eu
0.605882 0.123529 0.327416 Eu
0.758824 0.135294 0.327416 Eu
0.911765 0.147059 0.327416 Eu
0.064706 0.158824 0.327416 Eu
0.217647 0.170588 0.327416 Eu
0.370588 0.182353 0.327416 Eu
0.523529 0.194118 0.327416 Eu
0.676471 0.205882 0.327416 Eu
0.829412 0.217647 0.327416 Eu
0.982353 0.229412 0.327416 Eu
0.135294 0.241176 0.327416 Eu
0.288235 0.252941 0.327416 Eu
0.441176 0.264706 0.327416 Eu
0.594118 0.276471 0.327416 Eu
0.747059 0.288235 0.327416 Eu
0.900000 0.300000 0.327416 Eu
0.052941 0.311765 0.327416 Eu
0.205882 0.323529 0.327416 Eu
0.358824 0.335294 0.327416 Eu
0.511765 0.347059 0.327416 Eu
0.664706 0.358824 0.327416 Eu
0.817647 0.370588 0.327416 Eu
0.970588 0.382353 0.327416 Eu
0.123529 0.394118 0.327416 Eu
0.276471 0.405882 0.327416 Eu
0.429412 0.417647 0.327416 Eu
0.582353 0.429412 0.327416 Eu
0.735294 0.441176 0.327416 Eu
0.888235 0.452941 0.327416 Eu
0.041176 0.464706 0.327416 Eu
0.194118 0.476471 0.327416 Eu
0.347059 0.488235 0.327416 Eu
0.500000 0.500000 0.327416 Eu
0.652941 0.511765 0.327416 Eu
0.805882 0.523529 0.327416 Eu
0.958824 0.535294 0.327416 Eu
0.111765 0.547059 0.327416 Eu
0.264706 0.558824 0.327416 Eu
0.417647 0.570588 0.327416 Eu
0.570588 0.582353 0.327416 Eu
0.723529 0.594118 0.327416 Eu
0.876471 0.605882 0.327416 Eu
0.029412 0.617647 0.327416 Eu
0.182353 0.629412 0.327416 Eu
0.335294 0.641176 0.327416 Eu
0.488235 0.652941 0.327416 Eu
0.641176 0.664706 0.327416 Eu
0.794118 0.676471 0.327416 Eu
0.947059 0.688235 0.327416 Eu
0.100000 0.700000 0.327416 Eu
0.252941 0.711765 0.327416 Eu
0.405882 0.723529 0.327416 Eu
0.558824 0.735294 0.327416 Eu
0.711765 0.747059 0.327416 Eu
0.864706 0.758824 0.327416 Eu
0.017647 0.770588 0.327416 Eu
0.170588 0.782353 0.327416 Eu
0.323529 0.794118 0.327416 Eu
0.476471 0.805882 0.327416 Eu
0.629412 0.817647 0.327416 Eu
0.782353 0.829412 0.327416 Eu
0.935294 0.841176 0.327416 Eu
0.088235 0.852941 0.327416 Eu
0.241176 0.864706 0.327416 Eu
0.394118 0.876471 0.327416 Eu
0.547059 0.888235 0.327416 Eu
0.700000 0.900000 0.327416 Eu
0.852941 0.911765 0.327416 Eu
0.005882 0.923529 0.327416 Eu
0.158824 0.935294 0.327416 Eu
0.311765 0.947059 0.327416 Eu
0.464706 0.958824 0.327416 Eu
0.617647 0.970588 0.327416 Eu
0.770588 0.982353 0.327416 Eu
0.923529 0.994118 0.327416 Eu
0.000000 0.000000 0.300248 Eu
0.152941 0.011765 0.300248 Eu
0.305882 0.023529 0.300248 Eu
0.458824 0.035294 0.300248 Eu
0.611765 0.047059 0.300248 Eu
0.764706 0.058824 0.300248 Eu
0.917647 0.070588 0.300248 Eu
0.070588 0.082353 0.300248 Eu
0.223529 0.094118 0.300248 Eu
0.376471 0.105882 0.300248 Eu
0.529412 0.117647 0.300248 Eu
0.682353 0.129412 0.300248 Eu
0.835294 0.141176 0.300248 Eu
0.988235 0.152941 0.300248 Eu
0.141176 0.164706 0.300248 Eu
0.294118 0.176471 0.300248 Eu
0.447059 0.188235 0.300248 Eu
0.600000 0.200000 0.300248 Eu
0.752941 0.211765 0.300248 Eu
0.905882 0.223529 0.300248 Eu
0.058824 0.235294 0.300248 Eu
0.211765 0.247059 0.300248 Eu
0.364706 0.258824 0.300248 Eu
0.517647 0.270588 0.300248 Eu
0.670588 0.282353 0.300248 Eu
0.823529 0.294118 0.300248 Eu
0.976471 0.305882 0.300248 Eu
0.129412 0.317647 0.300248 Eu
0.282353 0.329412 0.300248 Eu
0.435294 0.341176 0.300248 Eu
0.588235 0.352941 0.300248 Eu
0.741176 0.364706 0.300248 Eu
0.894118 0.376471 0.300248 Eu
0.047059 0.388235 0.300248 Eu
0.200000 0.400000 0.300248 Eu
0.352941 0.411765 0.300248 Eu
0.505882 0.423529 0.300248 Eu
0.658824 0.435294 0.300248 Eu
0.811765 0.447059 0.300248 Eu
0.964706 0.458824 0.300248 Eu
0.117647 0.470588 0.300248 Eu
0.270588 0.482353 0.300248 Eu
0.423529 0.494118 0.300248 Eu
0.576471 0.505882 0.300248 Eu
0.729412 0.517647 0.300248 Eu
0.882353 0.529412 0.300248 Eu
0.035294 0.541176 0.300248 Eu
0.188235 0.552941 0.300248 Eu
0.341176 0.564706 0.300248 Eu
0.494118 0.576471 0.300248 Eu
0.647059 0.588235 0.300248 Eu
0.800000 0.600000 0.300248 Eu
0.952941 0.611765 0.300248 Eu
0.105882 0.623529 0.300248 Eu
0.258824 0.635294 0.300248 Eu
0.411765 0.647059 0.300248 Eu
0.564706 0.658824 0.300248 Eu
0.717647 0.670588 0.300248 Eu
0.870588 0.682353 0.300248 Eu
0.023529 0.694118 0.300248 Eu
0.176471 0.705882 0.300248 Eu
0.329412 0.717647 0.300248 Eu
0.482353 0.729412 0.300248 Eu
0.635294 0.741176 0.300248 Eu
0.788235 0.752941 0.300248 Eu
0.941176 0.764706 0.300248 Eu
0.094118 0.776471 0.300248 Eu
0.247059 0.788235 0.300248 Eu
0.400000 0.800000 0.300248 Eu
0.552941 0.811765 0.300248 Eu
0.705882 0.823529 0.300248 Eu
0.858824 0.835294 0.300248 Eu
0.011765 0.847059 0.300248 Eu
0.164706 0.858824 0.300248 Eu
0.317647 0.870588 0.300248 Eu
0.470588 0.882353 0.300248 Eu
0.623529 0.894118 0.300248 Eu
0.776471 0.905882 0.300248 Eu
0.929412 0.917647 0.300248 Eu
0.082353 0.929412 0.300248 Eu
0.235294 0.941176 0.300248 Eu
0.388235 0.952941 0.300248 Eu
0.541176 0.964706 0.300248 Eu
0.694118 0.976471 0.300248 Eu
0.847059 0.988235 0.300248 Eu
0.083333 0.000000 0.265469 In
0.250000 0.000000 0.265469 In
0.416667 0.000000 0.265469 In
0.583333 0.000000 0.265469 In
0.750000 1.000000 0.265469 In
0.916667 0.000000 0.265469 In
0.250000 0.166667 0.265469 In
0.416667 0.166667 0.265469 In
0.583333 0.166667 0.265469 In
0.750000 0.166667 0.265469 In
0.916667 0.166667 0.265469 In
0.083333 0.166667 0.265469 In
0.416667 0.333333 0.265469 In
0.583333 0.333333 0.265469 In
0.750000 0.333333 0.265469 In
0.916667 0.333333 0.265469 In
0.083333 0.333333 0.265469 In
0.250000 0.333333 0.265469 In
0.583333 0.500000 0.265469 In
0.750000 0.500000 0.265469 In
0.916667 0.500000 0.265469 In
0.083333 0.500000 0.265469 In
0.250000 0.500000 0.265469 In
0.416667 0.500000 0.265469 In
0.750000 0.666667 0.265469 In
0.916667 0.666667 0.265469 In
0.083333 0.666667 0.265469 In
0.250000 0.666667 0.265469 In
0.416667 0.666667 0.265469 In
0.583333 0.666667 0.265469 In
0.916667 0.833333 0.265469 In
0.083333 0.833333 0.265469 In
0.250000 0.833333 0.265469 In
0.416667 0.833333 0.265469 In
0.583333 0.833333 0.265469 In
0.750000 0.833333 0.265469 In
0.000000 0.083333 0.265469 In
0.166667 0.083333 0.265469 In
0.333333 0.083333 0.265469 In
0.500000 0.083333 0.265469 In
0.666667 0.083333 0.265469 In
0.833333 0.083333 0.265469 In
0.166667 0.250000 0.265469 In
0.333333 0.250000 0.265469 In
0.500000 0.250000 0.265469 In
0.666667 0.250000 0.265469 In
0.833333 0.250000 0.265469 In
0.000000 0.250000 0.265469 In
0.333333 0.416667 0.265469 In
0.500000 0.416667 0.265469 In
0.666667 0.416667 0.265469 In
0.833333 0.416667 0.265469 In
0.000000 0.416667 0.265469 In
0.166667 0.416667 0.265469 In
0.500000 0.583333 0.265469 In
0.666667 0.583333 0.265469 In
0.833333 0.583333 0.265469 In
0.000000 0.583333 0.265469 In
0.166667 0.583333 0.265469 In
0.333333 0.583333 0.265469 In
0.666667 0.750000 0.265469 In
0.833333 0.750000 0.265469 In
0.000000 0.750000 0.265469 In
0.166667 0.750000 0.265469 In
0.333333 0.750000 0.265469 In
0.500000 0.750000 0.265469 In
0.833333 0.916667 0.265469 In
0.000000 0.916667 0.265469 In
0.166667 0.916667 0.265469 In
0.333333 0.916667 0.265469 In
0.500000 0.916667 0.265469 In
0.666667 0.916667 0.265469 In
0.000000 0.000000 0.235972 In
0.166667 0.000000 0.235972 In
0.333333 0.000000 0.235972 In
0.500000 0.000000 0.235972 In
0.666667 0.000000 0.235972 In
0.833333 1.000000 0.235972 In
0.166667 0.166667 0.235972 In
0.333333 0.166667 0.235972 In
0.500000 0.166667 0.235972 In
0.666667 0.166667 0.235972 In
0.833333 0.166667 0.235972 In
0.000000 0.166667 0.235972 In
0.333333 0.333333 0.235972 In
0.500000 0.333333 0.235972 In
0.666667 0.333333 0.235972 In
0.833333 0.333333 0.235972 In
0.000000 0.333333 0.235972 In
0.166667 0.333333 0.235972 In
0.500000 0.500000 0.235972 In
0.666667 0.500000 0.235972 In
0.833333 0.500000 0.235972 In
0.000000 0.500000 0.235972 In
0.166667 0.500000 0.235972 In
0.333333 0.500000 0.235972 In
0.666667 0.666667 0.235972 In
0.833333 0.666667 0.235972 In
1.000000 0.666667 0.235972 In
0.166667 0.666667 0.235972 In
0.333333 0.666667 0.235972 In
0.500000 0.666667 0.235972 In
0.833333 0.833333 0.235972 In
0.000000 0.833333 0.235972 In
0.166667 0.833333 0.235972 In
0.333333 0.833333 0.235972 In
0.500000 0.833333 0.235972 In
0.666667 0.833333 0.235972 In
0.083333 0.083333 0.235972 In
0.250000 0.083333 0.235972 In
0.416667 0.083333 0.235972 In
0.583333 0.083333 0.235972 In
0.750000 0.083333 0.235972 In
0.916667 0.083333 0.235972 In
0.250000 0.250000 0.235972 In
0.416667 0.250000 0.235972 In
0.583333 0.250000 0.235972 In
0.750000 0.250000 0.235972 In
0.916667 0.250000 0.235972 In
0.083333 0.250000 0.235972 In
0.416667 0.416667 0.235972 In
0.583333 0.416667 0.235972 In
0.750000 0.416667 0.235972 In
0.916667 0.416667 0.235972 In
0.083333 0.416667 0.235972 In
0.250000 0.416667 0.235972 In
0.583333 0.583333 0.235972 In
0.750000 0.583333 0.235972 In
0.916667 0.583333 0.235972 In
0.083333 0.583333 0.235972 In
0.250000 0.583333 0.235972 In
0.416667 0.583333 0.235972 In
0.750000 0.750000 0.235972 In
0.916667 0.750000 0.235972 In
0.083333 0.750000 0.235972 In
0.250000 0.750000 0.235972 In
0.416667 0.750000 0.235972 In
0.583333 0.750000 0.235972 In
0.916667 0.916667 0.235972 In
0.083333 0.916667 0.235972 In
0.250000 0.916667 0.235972 In
0.416667 0.916667 0.235972 In
0.583333 0.916667 0.235972 In
0.750000 0.916667 0.235972 In
0.083333 0.000000 0.206476 In
0.250000 0.000000 0.206476 In
0.416667 0.000000 0.206476 In
0.583333 0.000000 0.206476 In
0.750000 1.000000 0.206476 In
0.916667 0.000000 0.206476 In
0.250000 0.166667 0.206476 In
0.416667 0.166667 0.206476 In
0.583333 0.166667 0.206476 In
0.750000 0.166667 0.206476 In
0.916667 0.166667 0.206476 In
0.083333 0.166667 0.206476 In
0.416667 0.333333 0.206476 In
0.583333 0.333333 0.206476 In
0.750000 0.333333 0.206476 In
0.916667 0.333333 0.206476 In
0.083333 0.333333 0.206476 In
0.250000 0.333333 0.206476 In
0.583333 0.500000 0.206476 In
0.750000 0.500000 0.206476 In
0.916667 0.500000 0.206476 In
0.083333 0.500000 0.206476 In
0.250000 0.500000 0.206476 In
0.416667 0.500000 0.206476 In
0.750000 0.666667 0.206476 In
0.916667 0.666667 0.206476 In
0.083333 0.666667 0.206476 In
0.250000 0.666667 0.206476 In
0.416667 0.666667 0.206476 In
0.583333 0.666667 0.206476 In
0.916667 0.833333 0.206476 In
0.083333 0.833333 0.206476 In
0.250000 0.833333 0.206476 In
0.416667 0.833333 0.206476 In
0.583333 0.833333 0.206476 In
0.750000 0.833333 0.206476 In
0.000000 0.083333 0.206476 In
0.166667 0.083333 0.206476 In
0.333333 0.083333 0.206476 In
0.500000 0.083333 0.206476 In
0.666667 0.083333 0.206476 In
0.833333 0.083333 0.206476 In
0.166667 0.250000 0.206476 In
0.333333 0.250000 0.206476 In
0.500000 0.250000 0.206476 In
0.666667 0.250000 0.206476 In
0.833333 0.250000 0.206476 In
0.000000 0.250000 0.206476 In
0.333333 0.416667 0.206476 In
0.500000 0.416667 0.206476 In
0.666667 0.416667 0.206476 In
0.833333 0.416667 0.206476 In
0.000000 0.416667 0.206476 In
0.166667 0.416667 0.206476 In
0.500000 0.583333 0.206476 In
0.666667 0.583333 0.206476 In
0.833333 0.583333 0.206476 In
0.000000 0.583333 0.206476 In
0.166667 0.583333 0.206476 In
0.333333 0.583333 0.206476 In
0.666667 0.750000 0.206476 In
0.833333 0.750000 0.206476 In
0.000000 0.750000 0.206476 In
0.166667 0.750000 0.206476 In
0.333333 0.750000 0.206476 In
0.500000 0.750000 0.206476 In
0.833333 0.916667 0.206476 In
0.000000 0.916667 0.206476 In
0.166667 0.916667 0.206476 In
0.333333 0.916667 0.206476 In
0.500000 0.916667 0.206476 In
0.666667 0.916667 0.206476 In
0.000000 0.000000 0.176979 In
0.166667 0.000000 0.176979 In
0.333333 0.000000 0.176979 In
0.500000 0.000000 0.176979 In
0.666667 0.000000 0.176979 In
0.833333 1.000000 0.176979 In
0.166667 0.166667 0.176979 In
0.333333 0.166667 0.176979 In
0.500000 0.166667 0.176979 In
0.666667 0.166667 0.176979 In
0.833333 0.166667 0.176979 In
0.000000 0.166667 0.176979 In
0.333333 0.333333 0.176979 In