Eu306 In261 Sb290 H126 S306
1.0
-0.000000 24.672820 -0.000000
-0.000000 0.000000 24.672820
109.833150 -0.000000 -0.000000
Eu In Sb H S
306 261 290 126 306
direct
0.000000 0.000000 0.517596 Eu
0.058824 0.235294 0.517596 Eu
0.117647 0.470588 0.517596 Eu
0.176471 0.705882 0.517596 Eu
0.235294 0.941176 0.517596 Eu
0.294118 0.176471 0.517596 Eu
0.352941 0.411765 0.517596 Eu
0.411765 0.647059 0.517596 Eu
0.470588 0.882353 0.517596 Eu
0.529412 0.117647 0.517596 Eu
0.588235 0.352941 0.517596 Eu
0.647059 0.588235 0.517596 Eu
0.705882 0.823529 0.517596 Eu
0.764706 0.058824 0.517596 Eu
0.823529 0.294118 0.517596 Eu
0.882353 0.529412 0.517596 Eu
0.941176 0.764706 0.517596 Eu
0.147059 0.088235 0.517596 Eu
0.205882 0.323529 0.517596 Eu
0.264706 0.558824 0.517596 Eu
0.323529 0.794118 0.517596 Eu
0.382353 0.029412 0.517596 Eu
0.441176 0.264706 0.517596 Eu
0.500000 0.500000 0.517596 Eu
0.558824 0.735294 0.517596 Eu
0.617647 0.970588 0.517596 Eu
0.676471 0.205882 0.517596 Eu
0.735294 0.441176 0.517596 Eu
0.794118 0.676471 0.517596 Eu
0.852941 0.911765 0.517596 Eu
0.911765 0.147059 0.517596 Eu
0.970588 0.382353 0.517596 Eu
0.029412 0.617647 0.517596 Eu
0.088235 0.852941 0.517596 Eu
0.029412 0.117647 0.490427 Eu
0.088235 0.352941 0.490427 Eu
0.147059 0.588235 0.490427 Eu
0.205882 0.823529 0.490427 Eu
0.264706 0.058824 0.490427 Eu
0.323529 0.294118 0.490427 Eu
0.382353 0.529412 0.490427 Eu
0.441176 0.764706 0.490427 Eu
0.500000 0.000000 0.490427 Eu
0.558824 0.235294 0.490427 Eu
0.617647 0.470588 0.490427 Eu
0.676471 0.705882 0.490427 Eu
0.735294 0.941176 0.490427 Eu
0.794118 0.176471 0.490427 Eu
0.852941 0.411765 0.490427 Eu
0.911765 0.647059 0.490427 Eu
0.970588 0.882353 0.490427 Eu
0.117647 0.970588 0.490427 Eu
0.176471 0.205882 0.490427 Eu
0.235294 0.441176 0.490427 Eu
0.294118 0.676471 0.490427 Eu
0.352941 0.911765 0.490427 Eu
0.411765 0.147059 0.490427 Eu
0.470588 0.382353 0.490427 Eu
0.529412 0.617647 0.490427 Eu
0.588235 0.852941 0.490427 Eu
0.647059 0.088235 0.490427 Eu
0.705882 0.323529 0.490427 Eu
0.764706 0.558824 0.490427 Eu
0.823529 0.794118 0.490427 Eu
0.882353 0.029412 0.490427 Eu
0.941176 0.264706 0.490427 Eu
0.000000 0.500000 0.490427 Eu
0.058824 0.735294 0.490427 Eu
0.000000 0.000000 0.463259 Eu
0.058824 0.235294 0.463259 Eu
0.117647 0.470588 0.463259 Eu
0.176471 0.705882 0.463259 Eu
0.235294 0.941176 0.463259 Eu
0.294118 0.176471 0.463259 Eu
0.352941 0.411765 0.463259 Eu
0.411765 0.647059 0.463259 Eu
0.470588 0.882353 0.463259 Eu
0.529412 0.117647 0.463259 Eu
0.588235 0.352941 0.463259 Eu
0.647059 0.588235 0.463259 Eu
0.705882 0.823529 0.463259 Eu
0.764706 0.058824 0.463259 Eu
0.823529 0.294118 0.463259 Eu
0.882353 0.529412 0.463259 Eu
0.941176 0.764706 0.463259 Eu
0.147059 0.088235 0.463259 Eu
0.205882 0.323529 0.463259 Eu
0.264706 0.558824 0.463259 Eu
0.323529 0.794118 0.463259 Eu
0.382353 0.029412 0.463259 Eu
0.441176 0.264706 0.463259 Eu
0.500000 0.500000 0.463259 Eu
0.558824 0.735294 0.463259 Eu
0.617647 0.970588 0.463259 Eu
0.676471 0.205882 0.463259 Eu
0.735294 0.441176 0.463259 Eu
0.794118 0.676471 0.463259 Eu
0.852941 0.911765 0.463259 Eu
0.911765 0.147059 0.463259 Eu
0.970588 0.382353 0.463259 Eu
0.029412 0.617647 0.463259 Eu
0.088235 0.852941 0.463259 Eu
0.029412 0.117647 0.436090 Eu
0.088235 0.352941 0.436090 Eu
0.147059 0.588235 0.436090 Eu
0.205882 0.823529 0.436090 Eu
0.264706 0.058824 0.436090 Eu
0.323529 0.294118 0.436090 Eu
0.382353 0.529412 0.436090 Eu
0.441176 0.764706 0.436090 Eu
0.500000 0.000000 0.436090 Eu
0.558824 0.235294 0.436090 Eu
0.617647 0.470588 0.436090 Eu
0.676471 0.705882 0.436090 Eu
0.735294 0.941176 0.436090 Eu
0.794118 0.176471 0.436090 Eu
0.852941 0.411765 0.436090 Eu
0.911765 0.647059 0.436090 Eu
0.970588 0.882353 0.436090 Eu
0.117647 0.970588 0.436090 Eu
0.176471 0.205882 0.436090 Eu
0.235294 0.441176 0.436090 Eu
0.294118 0.676471 0.436090 Eu
0.352941 0.911765 0.436090 Eu
0.411765 0.147059 0.436090 Eu
0.470588 0.382353 0.436090 Eu
0.529412 0.617647 0.436090 Eu
0.588235 0.852941 0.436090 Eu
0.647059 0.088235 0.436090 Eu
0.705882 0.323529 0.436090 Eu
0.764706 0.558824 0.436090 Eu
0.823529 0.794118 0.436090 Eu
0.882353 0.029412 0.436090 Eu
0.941176 0.264706 0.436090 Eu
0.000000 0.500000 0.436090 Eu
0.058824 0.735294 0.436090 Eu
0.000000 0.000000 0.408922 Eu
0.058824 0.235294 0.408922 Eu
0.117647 0.470588 0.408922 Eu
0.176471 0.705882 0.408922 Eu
0.235294 0.941176 0.408922 Eu
0.294118 0.176471 0.408922 Eu
0.352941 0.411765 0.408922 Eu
0.411765 0.647059 0.408922 Eu
0.470588 0.882353 0.408922 Eu
0.529412 0.117647 0.408922 Eu
0.588235 0.352941 0.408922 Eu
0.647059 0.588235 0.408922 Eu
0.705882 0.823529 0.408922 Eu
0.764706 0.058824 0.408922 Eu
0.823529 0.294118 0.408922 Eu
0.882353 0.529412 0.408922 Eu
0.941176 0.764706 0.408922 Eu
0.147059 0.088235 0.408922 Eu
0.205882 0.323529 0.408922 Eu
0.264706 0.558824 0.408922 Eu
0.323529 0.794118 0.408922 Eu
0.382353 0.029412 0.408922 Eu
0.441176 0.264706 0.408922 Eu
0.500000 0.500000 0.408922 Eu
0.558824 0.735294 0.408922 Eu
0.617647 0.970588 0.408922 Eu
0.676471 0.205882 0.408922 Eu
0.735294 0.441176 0.408922 Eu
0.794118 0.676471 0.408922 Eu
0.852941 0.911765 0.408922 Eu
0.911765 0.147059 0.408922 Eu
0.970588 0.382353 0.408922 Eu
0.029412 0.617647 0.408922 Eu
0.088235 0.852941 0.408922 Eu
0.029412 0.117647 0.381753 Eu
0.088235 0.352941 0.381753 Eu
0.147059 0.588235 0.381753 Eu
0.205882 0.823529 0.381753 Eu
0.264706 0.058824 0.381753 Eu
0.323529 0.294118 0.381753 Eu
0.382353 0.529412 0.381753 Eu
0.441176 0.764706 0.381753 Eu
0.500000 0.000000 0.381753 Eu
0.558824 0.235294 0.381753 Eu
0.617647 0.470588 0.381753 Eu
0.676471 0.705882 0.381753 Eu
0.735294 0.941176 0.381753 Eu
0.794118 0.176471 0.381753 Eu
0.852941 0.411765 0.381753 Eu
0.911765 0.647059 0.381753 Eu
0.970588 0.882353 0.381753 Eu
0.117647 0.970588 0.381753 Eu
0.176471 0.205882 0.381753 Eu
0.235294 0.441176 0.381753 Eu
0.294118 0.676471 0.381753 Eu
0.352941 0.911765 0.381753 Eu
0.411765 0.147059 0.381753 Eu
0.470588 0.382353 0.381753 Eu
0.529412 0.617647 0.381753 Eu
0.588235 0.852941 0.381753 Eu
0.647059 0.088235 0.381753 Eu
0.705882 0.323529 0.381753 Eu
0.764706 0.558824 0.381753 Eu
0.823529 0.794118 0.381753 Eu
0.882353 0.029412 0.381753 Eu
0.941176 0.264706 0.381753 Eu
0.000000 0.500000 0.381753 Eu
0.058824 0.735294 0.381753 Eu
0.000000 0.000000 0.354585 Eu
0.058824 0.235294 0.354585 Eu
0.117647 0.470588 0.354585 Eu
0.176471 0.705882 0.354585 Eu
0.235294 0.941176 0.354585 Eu
0.294118 0.176471 0.354585 Eu
0.352941 0.411765 0.354585 Eu
0.411765 0.647059 0.354585 Eu
0.470588 0.882353 0.354585 Eu
0.529412 0.117647 0.354585 Eu
0.588235 0.352941 0.354585 Eu
0.647059 0.588235 0.354585 Eu
0.705882 0.823529 0.354585 Eu
0.764706 0.058824 0.354585 Eu
0.823529 0.294118 0.354585 Eu
0.882353 0.529412 0.354585 Eu
0.941176 0.764706 0.354585 Eu
0.147059 0.088235 0.354585 Eu
0.205882 0.323529 0.354585 Eu
0.264706 0.558824 0.354585 Eu
0.323529 0.794118 0.354585 Eu
0.382353 0.029412 0.354585 Eu
0.441176 0.264706 0.354585 Eu
0.500000 0.500000 0.354585 Eu
0.558824 0.735294 0.354585 Eu
0.617647 0.970588 0.354585 Eu
0.676471 0.205882 0.354585 Eu
0.735294 0.441176 0.354585 Eu
0.794118 0.676471 0.354585 Eu
0.852941 0.911765 0.354585 Eu
0.911765 0.147059 0.354585 Eu
0.970588 0.382353 0.354585 Eu
0.029412 0.617647 0.354585 Eu
0.088235 0.852941 0.354585 Eu
0.029412 0.117647 0.327416 Eu
0.088235 0.352941 0.327416 Eu
0.147059 0.588235 0.327416 Eu
0.205882 0.823529 0.327416 Eu
0.264706 0.058824 0.327416 Eu
0.323529 0.294118 0.327416 Eu
0.382353 0.529412 0.327416 Eu
0.441176 0.764706 0.327416 Eu
0.500000 0.000000 0.327416 Eu
0.558824 0.235294 0.327416 Eu
0.617647 0.470588 0.327416 Eu
0.676471 0.705882 0.327416 Eu
0.735294 0.941176 0.327416 Eu
0.794118 0.176471 0.327416 Eu
0.852941 0.411765 0.327416 Eu
0.911765 0.647059 0.327416 Eu
0.970588 0.882353 0.327416 Eu
0.117647 0.970588 0.327416 Eu
0.176471 0.205882 0.327416 Eu
0.235294 0.441176 0.327416 Eu
0.294118 0.676471 0.327416 Eu
0.352941 0.911765 0.327416 Eu
0.411765 0.147059 0.327416 Eu
0.470588 0.382353 0.327416 Eu
0.529412 0.617647 0.327416 Eu
0.588235 0.852941 0.327416 Eu
0.647059 0.088235 0.327416 Eu
0.705882 0.323529 0.327416 Eu
0.764706 0.558824 0.327416 Eu
0.823529 0.794118 0.327416 Eu
0.882353 0.029412 0.327416 Eu
0.941176 0.264706 0.327416 Eu
0.000000 0.500000 0.327416 Eu
0.058824 0.735294 0.327416 Eu
0.000000 0.000000 0.300248 Eu
0.058824 0.235294 0.300248 Eu
0.117647 0.470588 0.300248 Eu
0.176471 0.705882 0.300248 Eu
0.235294 0.941176 0.300248 Eu
0.294118 0.176471 0.300248 Eu
0.352941 0.411765 0.300248 Eu
0.411765 0.647059 0.300248 Eu
0.470588 0.882353 0.300248 Eu
0.529412 0.117647 0.300248 Eu
0.588235 0.352941 0.300248 Eu
0.647059 0.588235 0.300248 Eu
0.705882 0.823529 0.300248 Eu
0.764706 0.058824 0.300248 Eu
0.823529 0.294118 0.300248 Eu
0.882353 0.529412 0.300248 Eu
0.941176 0.764706 0.300248 Eu
0.147059 0.088235 0.300248 Eu
0.205882 0.323529 0.300248 Eu
0.264706 0.558824 0.300248 Eu
0.323529 0.794118 0.300248 Eu
0.382353 0.029412 0.300248 Eu
0.441176 0.264706 0.300248 Eu
0.500000 0.500000 0.300248 Eu
0.558824 0.735294 0.300248 Eu
0.617647 0.970588 0.300248 Eu
0.676471 0.205882 0.300248 Eu
0.735294 0.441176 0.300248 Eu
0.794118 0.676471 0.300248 Eu
0.852941 0.911765 0.300248 Eu
0.911765 0.147059 0.300248 Eu
0.970588 0.382353 0.300248 Eu
0.029412 0.617647 0.300248 Eu
0.088235 0.852941 0.300248 Eu
0.948276 0.120690 0.265469 In
0.844828 0.362069 0.265469 In
0.741379 0.603448 0.265469 In
0.637931 0.844828 0.265469 In
0.534483 0.086207 0.265469 In
0.431034 0.327586 0.265469 In
0.327586 0.568966 0.265469 In
0.224138 0.810345 0.265469 In
0.120690 0.051724 0.265469 In
0.017241 0.293103 0.265469 In
0.913793 0.534483 0.265469 In
0.810345 0.775862 0.265469 In
0.706897 0.017241 0.265469 In
0.603448 0.258621 0.265469 In
0.500000 0.500000 0.265469 In
0.396552 0.741379 0.265469 In
0.293103 0.982759 0.265469 In
0.189655 0.224138 0.265469 In
0.086207 0.465517 0.265469 In
0.982759 0.706897 0.265469 In
0.879310 0.948276 0.265469 In
0.775862 0.189655 0.265469 In
0.672414 0.431034 0.265469 In
0.568966 0.672414 0.265469 In
0.465517 0.913793 0.265469 In
0.362069 0.155172 0.265469 In
0.258621 0.396552 0.265469 In
0.155172 0.637931 0.265469 In
0.051724 0.879310 0.265469 In
0.000000 0.000000 0.235972 In
0.896552 0.241379 0.235972 In
0.793103 0.482759 0.235972 In
0.689655 0.724138 0.235972 In
0.586207 0.965517 0.235972 In
0.482759 0.206897 0.235972 In
0.379310 0.448276 0.235972 In
0.275862 0.689655 0.235972 In
0.172414 0.931034 0.235972 In
0.068966 0.172414 0.235972 In
0.965517 0.413793 0.235972 In
0.862069 0.655172 0.235972 In
0.758621 0.896552 0.235972 In
0.655172 0.137931 0.235972 In
0.551724 0.379310 0.235972 In
0.448276 0.620690 0.235972 In
0.344828 0.862069 0.235972 In
0.241379 0.103448 0.235972 In
0.137931 0.344828 0.235972 In
0.034483 0.586207 0.235972 In
0.931034 0.827586 0.235972 In
0.827586 0.068966 0.235972 In
0.724138 0.310345 0.235972 In
0.620690 0.551724 0.235972 In
0.517241 0.793103 0.235972 In
0.413793 0.034483 0.235972 In
0.310345 0.275862 0.235972 In
0.206897 0.517241 0.235972 In
0.103448 0.758621 0.235972 In
0.948276 0.120690 0.206476 In
0.844828 0.362069 0.206476 In
0.741379 0.603448 0.206476 In
0.637931 0.844828 0.206476 In
0.534483 0.086207 0.206476 In
0.431034 0.327586 0.206476 In
0.327586 0.568966 0.206476 In
0.224138 0.810345 0.206476 In
0.120690 0.051724 0.206476 In
0.017241 0.293103 0.206476 In
0.913793 0.534483 0.206476 In
0.810345 0.775862 0.206476 In
0.706897 0.017241 0.206476 In
0.603448 0.258621 0.206476 In
0.500000 0.500000 0.206476 In
0.396552 0.741379 0.206476 In
0.293103 0.982759 0.206476 In
0.189655 0.224138 0.206476 In
0.086207 0.465517 0.206476 In
0.982759 0.706897 0.206476 In
0.879310 0.948276 0.206476 In
0.775862 0.189655 0.206476 In
0.672414 0.431034 0.206476 In
0.568966 0.672414 0.206476 In
0.465517 0.913793 0.206476 In
0.362069 0.155172 0.206476 In
0.258621 0.396552 0.206476 In
0.155172 0.637931 0.206476 In
0.051724 0.879310 0.206476 In
0.000000 0.000000 0.176979 In
0.896552 0.241379 0.176979 In
0.793103 0.482759 0.176979 In
0.689655 0.724138 0.176979 In
0.586207 0.965517 0.176979 In
0.482759 0.206897 0.176979 In
0.379310 0.448276 0.176979 In
0.275862 0.689655 0.176979 In
0.172414 0.931034 0.176979 In
0.068966 0.172414 0.176979 In
0.965517 0.413793 0.176979 In
0.862069 0.655172 0.176979 In
0.758621 0.896552 0.176979 In
0.655172 0.137931 0.176979 In
0.551724 0.379310 0.176979 In
0.448276 0.620690 0.176979 In
0.344828 0.862069 0.176979 In
0.241379 0.103448 0.176979 In
0.137931 0.344828 0.176979 In
0.034483 0.586207 0.176979 In
0.931034 0.827586 0.176979 In
0.827586 0.068966 0.176979 In
0.724138 0.310345 0.176979 In
0.620690 0.551724 0.176979 In
0.517241 0.793103 0.176979 In
0.413793 0.034483 0.176979 In
0.310345 0.275862 0.176979 In
0.206897 0.517241 0.176979 In
0.103448 0.758621 0.176979 In
0.948276 0.120690 0.147483 In
0.844828 0.362069 0.147483 In
0.741379 0.603448 0.147483 In
0.637931 0.844828 0.147483 In
0.534483 0.086207 0.147483 In
0.431034 0.327586 0.147483 In
0.327586 0.568966 0.147483 In
0.224138 0.810345 0.147483 In
0.120690 0.051724 0.147483 In
0.017241 0.293103 0.147483 In
0.913793 0.534483 0.147483 In
0.810345 0.775862 0.147483 In
0.706897 0.017241 0.147483 In
0.603448 0.258621 0.147483 In
0.500000 0.500000 0.147483 In
0.396552 0.741379 0.147483 In
0.293103 0.982759 0.147483 In
0.189655 0.224138 0.147483 In
0.086207 0.465517 0.147483 In
0.982759 0.706897 0.147483 In
0.879310 0.948276 0.147483 In
0.775862 0.189655 0.147483 In
0.672414 0.431034 0.147483 In
0.568966 0.672414 0.147483 In
0.465517 0.913793 0.147483 In
0.362069 0.155172 0.147483 In
0.258621 0.396552 0.147483 In
0.155172 0.637931 0.147483 In
0.051724 0.879310 0.147483 In
0.000000 0.000000 0.117986 In
0.896552 0.241379 0.117986 In
0.793103 0.482759 0.117986 In
0.689655 0.724138 0.117986 In
0.586207 0.965517 0.117986 In
0.482759 0.206897 0.117986 In
0.379310 0.448276 0.117986 In
0.275862 0.689655 0.117986 In
0.172414 0.931034 0.117986 In
0.068966 0.172414 0.117986 In
0.965517 0.413793 0.117986 In
0.862069 0.655172 0.117986 In
0.758621 0.896552 0.117986 In
0.655172 0.137931 0.117986 In
0.551724 0.379310 0.117986 In
0.448276 0.620690 0.117986 In
0.344828 0.862069 0.117986 In
0.241379 0.103448 0.117986 In
0.137931 0.344828 0.117986 In
0.034483 0.586207 0.117986 In
0.931034 0.827586 0.117986 In
0.827586 0.068966 0.117986 In
0.724138 0.310345 0.117986 In
0.620690 0.551724 0.117986 In
0.517241 0.793103 0.117986 In
0.413793 0.034483 0.117986 In
0.310345 0.275862 0.117986 In
0.206897 0.517241 0.117986 In
0.103448 0.758621 0.117986 In
0.948276 0.120690 0.088490 In
0.844828 0.362069 0.088490 In
0.741379 0.603448 0.088490 In
0.637931 0.844828 0.088490 In
0.534483 0.086207 0.088490 In
0.431034 0.327586 0.088490 In
0.327586 0.568966 0.088490 In
0.224138 0.810345 0.088490 In
0.120690 0.051724 0.088490 In
0.017241 0.293103 0.088490 In
0.913793 0.534483 0.088490 In
0.810345 0.775862 0.088490 In
0.706897 0.017241 0.088490 In
0.603448 0.258621 0.088490 In
0.500000 0.500000 0.088490 In
0.396552 0.741379 0.088490 In
0.293103 0.982759 0.088490 In
0.189655 0.224138 0.088490 In
0.086207 0.465517 0.088490 In
0.982759 0.706897 0.088490 In
0.879310 0.948276 0.088490 In
0.775862 0.189655 0.088490 In
0.672414 0.431034 0.088490 In
0.568966 0.672414 0.088490 In
0.465517 0.913793 0.088490 In
0.362069 0.155172 0.088490 In
0.258621 0.396552 0.088490 In
0.155172 0.637931 0.088490 In
0.051724 0.879310 0.088490 In
0.000000 0.000000 0.058993 In
0.896552 0.241379 0.058993 In
0.793103 0.482759 0.058993 In
0.689655 0.724138 0.058993 In
0.586207 0.965517 0.058993 In
0.482759 0.206897 0.058993 In
0.379310 0.448276 0.058993 In
0.275862 0.689655 0.058993 In
0.172414 0.931034 0.058993 In
0.068966 0.172414 0.058993 In
0.965517 0.413793 0.058993 In
0.862069 0.655172 0.058993 In
0.758621 0.896552 0.058993 In
0.655172 0.137931 0.058993 In
0.551724 0.379310 0.058993 In
0.448276 0.620690 0.058993 In
0.344828 0.862069 0.058993 In
0.241379 0.103448 0.058993 In
0.137931 0.344828 0.058993 In
0.034483 0.586207 0.058993 In
0.931034 0.827586 0.058993 In
0.827586 0.068966 0.058993 In
0.724138 0.310345 0.058993 In
0.620690 0.551724 0.058993 In
0.517241 0.793103 0.058993 In
0.413793 0.034483 0.058993 In
0.310345 0.275862 0.058993 In
0.206897 0.517241 0.058993 In
0.103448 0.758621 0.058993 In
0.948276 0.120690 0.029497 In
0.844828 0.362069 0.029497 In
0.741379 0.603448 0.029497 In
0.637931 0.844828 0.029497 In
0.534483 0.086207 0.029497 In
0.431034 0.327586 0.029497 In
0.327586 0.568966 0.029497 In
0.224138 0.810345 0.029497 In
0.120690 0.051724 0.029497 In
0.017241 0.293103 0.029497 In
0.913793 0.534483 0.029497 In
0.810345 0.775862 0.029497 In
0.706897 0.017241 0.029497 In
0.603448 0.258621 0.029497 In
0.500000 0.500000 0.029497 In
0.396552 0.741379 0.029497 In
0.293103 0.982759 0.029497 In
0.189655 0.224138 0.029497 In
0.086207 0.465517 0.029497 In
0.982759 0.706897 0.029497 In
0.879310 0.948276 0.029497 In
0.775862 0.189655 0.029497 In
0.672414 0.431034 0.029497 In
0.568966 0.672414 0.029497 In
0.465517 0.913793 0.029497 In
0.362069 0.155172 0.029497 In
0.258621 0.396552 0.029497 In
0.155172 0.637931 0.029497 In
0.051724 0.879310 0.029497 In
0.982759 0.206897 0.280217 Sb
0.879310 0.448276 0.280217 Sb
0.775862 0.689655 0.280217 Sb
0.672414 0.931034 0.280217 Sb
0.568966 0.172414 0.280217 Sb
0.465517 0.413793 0.280217 Sb
0.362069 0.655172 0.280217 Sb
0.258621 0.896552 0.280217 Sb
0.155172 0.137931 0.280217 Sb
0.051724 0.379310 0.280217 Sb
0.948276 0.620690 0.280217 Sb
0.844828 0.862069 0.280217 Sb
0.741379 0.103448 0.280217 Sb
0.637931 0.344828 0.280217 Sb
0.534483 0.586207 0.280217 Sb
0.431034 0.827586 0.280217 Sb
0.327586 0.068966 0.280217 Sb
0.224138 0.310345 0.280217 Sb
0.120690 0.551724 0.280217 Sb
0.017241 0.793103 0.280217 Sb
0.913793 0.034483 0.280217 Sb
0.810345 0.275862 0.280217 Sb
0.706897 0.517241 0.280217 Sb
0.603448 0.758621 0.280217 Sb
0.500000 0.000000 0.280217 Sb
0.396552 0.241379 0.280217 Sb
0.293103 0.482759 0.280217 Sb
0.189655 0.724138 0.280217 Sb
0.086207 0.965517 0.280217 Sb
0.034483 0.086207 0.250721 Sb
0.931034 0.327586 0.250721 Sb
0.827586 0.568966 0.250721 Sb
0.724138 0.810345 0.250721 Sb
0.620690 0.051724 0.250721 Sb
0.517241 0.293103 0.250721 Sb
0.413793 0.534483 0.250721 Sb
0.310345 0.775862 0.250721 Sb
0.206897 0.017241 0.250721 Sb
0.103448 0.258621 0.250721 Sb
0.000000 0.500000 0.250721 Sb
0.896552 0.741379 0.250721 Sb
0.793103 0.982759 0.250721 Sb
0.689655 0.224138 0.250721 Sb
0.586207 0.465517 0.250721 Sb
0.482759 0.706897 0.250721 Sb
0.379310 0.948276 0.250721 Sb
0.275862 0.189655 0.250721 Sb
0.172414 0.431034 0.250721 Sb
0.068966 0.672414 0.250721 Sb
0.965517 0.913793 0.250721 Sb
0.862069 0.155172 0.250721 Sb
0.758621 0.396552 0.250721 Sb
0.655172 0.637931 0.250721 Sb
0.551724 0.879310 0.250721 Sb
0.448276 0.120690 0.250721 Sb
0.344828 0.362069 0.250721 Sb
0.241379 0.603448 0.250721 Sb
0.137931 0.844828 0.250721 Sb
0.982759 0.206897 0.221224 Sb
0.879310 0.448276 0.221224 Sb
0.775862 0.689655 0.221224 Sb
0.672414 0.931034 0.221224 Sb
0.568966 0.172414 0.221224 Sb
0.465517 0.413793 0.221224 Sb
0.362069 0.655172 0.221224 Sb
0.258621 0.896552 0.221224 Sb
0.155172 0.137931 0.221224 Sb
0.051724 0.379310 0.221224 Sb
0.948276 0.620690 0.221224 Sb
0.844828 0.862069 0.221224 Sb
0.741379 0.103448 0.221224 Sb
0.637931 0.344828 0.221224 Sb
0.534483 0.586207 0.221224 Sb
0.431034 0.827586 0.221224 Sb
0.327586 0.068966 0.221224 Sb
0.224138 0.310345 0.221224 Sb
0.120690 0.551724 0.221224 Sb
0.017241 0.793103 0.221224 Sb
0.913793 0.034483 0.221224 Sb
0.810345 0.275862 0.221224 Sb
0.706897 0.517241 0.221224 Sb
0.603448 0.758621 0.221224 Sb
0.500000 0.000000 0.221224 Sb
0.396552 0.241379 0.221224 Sb
0.293103 0.482759 0.221224 Sb
0.189655 0.724138 0.221224 Sb
0.086207 0.965517 0.221224 Sb
0.034483 0.086207 0.191728 Sb
0.931034 0.327586 0.191728 Sb
0.827586 0.568966 0.191728 Sb
0.724138 0.810345 0.191728 Sb
0.620690 0.051724 0.191728 Sb
0.517241 0.293103 0.191728 Sb
0.413793 0.534483 0.191728 Sb
0.310345 0.775862 0.191728 Sb
0.206897 0.017241 0.191728 Sb
0.103448 0.258621 0.191728 Sb
0.000000 0.500000 0.191728 Sb
0.896552 0.741379 0.191728 Sb
0.793103 0.982759 0.191728 Sb
0.689655 0.224138 0.191728 Sb
0.586207 0.465517 0.191728 Sb
0.482759 0.706897 0.191728 Sb
0.379310 0.948276 0.191728 Sb
0.275862 0.189655 0.191728 Sb
0.172414 0.431034 0.191728 Sb
0.068966 0.672414 0.191728 Sb
0.965517 0.913793 0.191728 Sb
0.862069 0.155172 0.191728 Sb
0.758621 0.396552 0.191728 Sb
0.655172 0.637931 0.191728 Sb
0.551724 0.879310 0.191728 Sb
0.448276 0.120690 0.191728 Sb
0.344828 0.362069 0.191728 Sb
0.241379 0.603448 0.191728 Sb
0.137931 0.844828 0.191728 Sb
0.982759 0.206897 0.162231 Sb
0.879310 0.448276 0.162231 Sb
0.775862 0.689655 0.162231 Sb
0.672414 0.931034 0.162231 Sb
0.568966 0.172414 0.162231 Sb
0.465517 0.413793 0.162231 Sb
0.362069 0.655172 0.162231 Sb
0.258621 0.896552 0.162231 Sb
0.155172 0.137931 0.162231 Sb
0.051724 0.379310 0.162231 Sb
0.948276 0.620690 0.162231 Sb
0.844828 0.862069 0.162231 Sb
0.741379 0.103448 0.162231 Sb
0.637931 0.344828 0.162231 Sb
0.534483 0.586207 0.162231 Sb
0.431034 0.827586 0.162231 Sb
0.327586 0.068966 0.162231 Sb
0.224138 0.310345 0.162231 Sb
0.120690 0.551724 0.162231 Sb
0.017241 0.793103 0.162231 Sb
0.913793 0.034483 0.162231 Sb
0.810345 0.275862 0.162231 Sb
0.706897 0.517241 0.162231 Sb
0.603448 0.758621 0.162231 Sb
0.500000 0.000000 0.162231 Sb
0.396552 0.241379 0.162231 Sb
0.293103 0.482759 0.162231 Sb
0.189655 0.724138 0.162231 Sb
0.086207 0.965517 0.162231 Sb
0.034483 0.086207 0.132735 Sb
0.931034 0.327586 0.132735 Sb
0.827586 0.568966 0.132735 Sb
0.724138 0.810345 0.132735 Sb
0.620690 0.051724 0.132735 Sb
0.517241 0.293103 0.132735 Sb
0.413793 0.534483 0.132735 Sb
0.310345 0.775862 0.132735 Sb
0.206897 0.017241 0.132735 Sb
0.103448 0.258621 0.132735 Sb
0.000000 0.500000 0.132735 Sb
0.896552 0.741379 0.132735 Sb
0.793103 0.982759 0.132735 Sb
0.689655 0.224138 0.132735 Sb
0.586207 0.465517 0.132735 Sb
0.482759 0.706897 0.132735 Sb
0.379310 0.948276 0.132735 Sb
0.275862 0.189655 0.132735 Sb
0.172414 0.431034 0.132735 Sb
0.068966 0.672414 0.132735 Sb
0.965517 0.913793 0.132735 Sb
0.862069 0.155172 0.132735 Sb
0.758621 0.396552 0.132735 Sb
0.655172 0.637931 0.132735 Sb
0.551724 0.879310 0.132735 Sb
0.448276 0.120690 0.132735 Sb
0.344828 0.362069 0.132735 Sb
0.241379 0.603448 0.132735 Sb
0.137931 0.844828 0.132735 Sb
0.982759 0.206897 0.103238 Sb
0.879310 0.448276 0.103238 Sb
0.775862 0.689655 0.103238 Sb
0.672414 0.931034 0.103238 Sb
0.568966 0.172414 0.103238 Sb
0.465517 0.413793 0.103238 Sb
0.362069 0.655172 0.103238 Sb
0.258621 0.896552 0.103238 Sb
0.155172 0.137931 0.103238 Sb
0.051724 0.379310 0.103238 Sb
0.948276 0.620690 0.103238 Sb
0.844828 0.862069 0.103238 Sb
0.741379 0.103448 0.103238 Sb
0.637931 0.344828 0.103238 Sb
0.534483 0.586207 0.103238 Sb
0.431034 0.827586 0.103238 Sb
0.327586 0.068966 0.103238 Sb
0.224138 0.310345 0.103238 Sb
0.120690 0.551724 0.103238 Sb
0.017241 0.793103 0.103238 Sb
0.913793 0.034483 0.103238 Sb
0.810345 0.275862 0.103238 Sb
0.706897 0.517241 0.103238 Sb
0.603448 0.758621 0.103238 Sb
0.500000 0.000000 0.103238 Sb
0.396552 0.241379 0.103238 Sb
0.293103 0.482759 0.103238 Sb
0.189655 0.724138 0.103238 Sb
0.086207 0.965517 0.103238 Sb
0.034483 0.086207 0.073741 Sb
0.931034 0.327586 0.073741 Sb
0.827586 0.568966 0.073741 Sb
0.724138 0.810345 0.073741 Sb
0.620690 0.051724 0.073741 Sb
0.517241 0.293103 0.073741 Sb
0.413793 0.534483 0.073741 Sb
0.310345 0.775862 0.073741 Sb
0.206897 0.017241 0.073741 Sb
0.103448 0.258621 0.073741 Sb
0.000000 0.500000 0.073741 Sb
0.896552 0.741379 0.073741 Sb
0.793103 0.982759 0.073741 Sb
0.689655 0.224138 0.073741 Sb
0.586207 0.465517 0.073741 Sb
0.482759 0.706897 0.073741 Sb
0.379310 0.948276 0.073741 Sb
0.275862 0.189655 0.073741 Sb
0.172414 0.431034 0.073741 Sb
0.068966 0.672414 0.073741 Sb
0.965517 0.913793 0.073741 Sb
0.862069 0.155172 0.073741 Sb
0.758621 0.396552 0.073741 Sb
0.655172 0.637931 0.073741 Sb
0.551724 0.879310 0.073741 Sb
0.448276 0.120690 0.073741 Sb
0.344828 0.362069 0.073741 Sb
0.241379 0.603448 0.073741 Sb
0.137931 0.844828 0.073741 Sb
0.982759 0.206897 0.044245 Sb
0.879310 0.448276 0.044245 Sb
0.775862 0.689655 0.044245 Sb
0.672414 0.931034 0.044245 Sb
0.568966 0.172414 0.044245 Sb
0.465517 0.413793 0.044245 Sb
0.362069 0.655172 0.044245 Sb
0.258621 0.896552 0.044245 Sb
0.155172 0.137931 0.044245 Sb
0.051724 0.379310 0.044245 Sb
0.948276 0.620690 0.044245 Sb
0.844828 0.862069 0.044245 Sb
0.741379 0.103448 0.044245 Sb
0.637931 0.344828 0.044245 Sb
0.534483 0.586207 0.044245 Sb
0.431034 0.827586 0.044245 Sb
0.327586 0.068966 0.044245 Sb
0.224138 0.310345 0.044245 Sb
0.120690 0.551724 0.044245 Sb
0.017241 0.793103 0.044245 Sb
0.913793 0.034483 0.044245 Sb
0.810345 0.275862 0.044245 Sb
0.706897 0.517241 0.044245 Sb
0.603448 0.758621 0.044245 Sb
0.500000 0.000000 0.044245 Sb
0.396552 0.241379 0.044245 Sb
0.293103 0.482759 0.044245 Sb
0.189655 0.724138 0.044245 Sb
0.086207 0.965517 0.044245 Sb
0.034483 0.086207 0.014748 Sb
0.931034 0.327586 0.014748 Sb
0.827586 0.568966 0.014748 Sb
0.724138 0.810345 0.014748 Sb
0.620690 0.051724 0.014748 Sb
0.517241 0.293103 0.014748 Sb
0.413793 0.534483 0.014748 Sb
0.310345 0.775862 0.014748 Sb
0.206897 0.017241 0.014748 Sb
0.103448 0.258621 0.014748 Sb
0.000000 0.500000 0.014748 Sb
0.896552 0.741379 0.014748 Sb
0.793103 0.982759 0.014748 Sb
0.689655 0.224138 0.014748 Sb
0.586207 0.465517 0.014748 Sb
0.482759 0.706897 0.014748 Sb
0.379310 0.948276 0.014748 Sb
0.275862 0.189655 0.014748 Sb
0.172414 0.431034 0.014748 Sb
0.068966 0.672414 0.014748 Sb
0.965517 0.913793 0.014748 Sb
0.862069 0.155172 0.014748 Sb
0.758621 0.396552 0.014748 Sb
0.655172 0.637931 0.014748 Sb
0.551724 0.879310 0.014748 Sb
0.448276 0.120690 0.014748 Sb
0.344828 0.362069 0.014748 Sb
0.241379 0.603448 0.014748 Sb
0.137931 0.844828 0.014748 Sb
0.015678 0.039196 0.006706 H
0.053287 0.133218 0.006706 H
0.912230 0.280575 0.006706 H
0.949839 0.374597 0.006706 H
0.808782 0.521955 0.006706 H
0.846391 0.615976 0.006706 H
0.705334 0.763334 0.006706 H
0.742942 0.857356 0.006706 H
0.601885 0.004713 0.006706 H
0.639494 0.098735 0.006706 H
0.498437 0.246093 0.006706 H
0.536046 0.340114 0.006706 H
0.394989 0.487472 0.006706 H
0.432597 0.581494 0.006706 H
0.291540 0.728851 0.006706 H
0.329149 0.822873 0.006706 H
0.188092 0.970231 0.006706 H
0.225701 0.064252 0.006706 H
0.084644 0.211610 0.006706 H
0.122253 0.305632 0.006706 H
0.981196 0.452989 0.006706 H
0.018804 0.547011 0.006706 H
0.877747 0.694368 0.006706 H
0.915356 0.788390 0.006706 H
0.774299 0.935748 0.006706 H
0.811908 0.029769 0.006706 H
0.670851 0.177127 0.006706 H
0.708460 0.271149 0.006706 H
0.567403 0.418506 0.006706 H
0.605011 0.512528 0.006706 H
0.463954 0.659886 0.006706 H
0.501563 0.753907 0.006706 H
0.360506 0.901265 0.006706 H
0.398115 0.995287 0.006706 H
0.257058 0.142644 0.006706 H
0.294666 0.236666 0.006706 H
0.153609 0.384024 0.006706 H
0.191218 0.478045 0.006706 H
0.050161 0.625403 0.006706 H
0.087770 0.719425 0.006706 H
0.946713 0.866782 0.006706 H
0.984322 0.960804 0.006706 H
0.843265 0.108162 0.006706 H
0.880873 0.202183 0.006706 H
0.739816 0.349541 0.006706 H
0.777425 0.443563 0.006706 H
0.636368 0.590920 0.006706 H
0.673977 0.684942 0.006706 H
0.532920 0.832300 0.006706 H
0.570528 0.926321 0.006706 H
0.429472 0.073679 0.006706 H
0.467080 0.167700 0.006706 H
0.326023 0.315058 0.006706 H
0.363632 0.409080 0.006706 H
0.222575 0.556437 0.006706 H
0.260184 0.650459 0.006706 H
0.119127 0.797817 0.006706 H
0.156735 0.891838 0.006706 H
1.000000 0.000000 0.536360 H
0.058824 0.235294 0.536360 H
0.117647 0.470588 0.536360 H
0.176471 0.705882 0.536360 H
0.235294 0.941177 0.536360 H
0.294118 0.176471 0.536360 H
0.352941 0.411765 0.536360 H
0.411765 0.647059 0.536360 H
0.470588 0.882353 0.536360 H
0.529412 0.117647 0.536360 H
0.588235 0.352941 0.536360 H
0.647059 0.588235 0.536360 H
0.705882 0.823529 0.536360 H
0.764706 0.058824 0.536360 H
0.823529 0.294118 0.536360 H
0.882353 0.529412 0.536360 H
0.941176 0.764706 0.536360 H
0.147059 0.088235 0.536360 H
0.205882 0.323529 0.536360 H
0.264706 0.558824 0.536360 H
0.323529 0.794118 0.536360 H
0.382353 0.029412 0.536360 H
0.441176 0.264706 0.536360 H
0.500000 0.500000 0.536360 H
0.558824 0.735294 0.536360 H
0.617647 0.970588 0.536360 H
0.676471 0.205882 0.536360 H
0.735294 0.441177 0.536360 H
0.794118 0.676471 0.536360 H
0.852941 0.911765 0.536360 H
0.911765 0.147059 0.536360 H
0.970588 0.382353 0.536360 H
0.029412 0.617647 0.536360 H
0.088235 0.852941 0.536360 H
0.029412 0.117647 0.528740 H
0.088235 0.352941 0.528740 H
0.147059 0.588235 0.528740 H
0.205882 0.823529 0.528740 H
0.264706 0.058824 0.528740 H
0.323529 0.294118 0.528740 H
0.382353 0.529412 0.528740 H
0.441176 0.764706 0.528740 H
0.500000 0.000000 0.528740 H
0.558824 0.235294 0.528740 H
0.617647 0.470588 0.528740 H
0.676471 0.705882 0.528740 H
0.735294 0.941176 0.528740 H
0.794118 0.176471 0.528740 H
0.852941 0.411765 0.528740 H
0.911765 0.647059 0.528740 H
0.970588 0.882353 0.528740 H
0.117647 0.970588 0.528740 H
0.176471 0.205882 0.528740 H
0.235294 0.441176 0.528740 H
0.294118 0.676471 0.528740 H
0.352941 0.911765 0.528740 H
0.411765 0.147059 0.528740 H
0.470588 0.382353 0.528740 H
0.529412 0.617647 0.528740 H
0.588235 0.852941 0.528740 H
0.647059 0.088235 0.528740 H
0.705882 0.323529 0.528740 H
0.764706 0.558824 0.528740 H
0.823529 0.794118 0.528740 H
0.882353 0.029412 0.528740 H
0.941176 0.264706 0.528740 H
0.000000 0.500000 0.528740 H
0.058824 0.735294 0.528740 H
0.029412 0.117647 0.517596 S
0.088235 0.352941 0.517596 S
0.147059 0.588235 0.517596 S
0.205882 0.823529 0.517596 S
0.264706 0.058824 0.517596 S
0.323529 0.294118 0.517596 S
0.382353 0.529412 0.517596 S
0.441176 0.764706 0.517596 S
0.500000 0.000000 0.517596 S
0.558824 0.235294 0.517596 S
0.617647 0.470588 0.517596 S
0.676471 0.705882 0.517596 S
0.735294 0.941176 0.517596 S
0.794118 0.176471 0.517596 S
0.852941 0.411765 0.517596 S
0.911765 0.647059 0.517596 S