Eu549 In468 Sb520 H226 S549
1.0
0.000000 0.000000 33.038587
-0.000000 33.038587 0.000000
-109.833150 -0.000000 0.000000
Eu In Sb H S
549 468 520 226 549
direct
0.000000 0.000000 0.517596 Eu
0.819672 0.016393 0.517596 Eu
0.639344 0.032787 0.517596 Eu
0.459016 0.049180 0.517596 Eu
0.278689 0.065574 0.517596 Eu
0.098361 0.081967 0.517596 Eu
0.918033 0.098361 0.517596 Eu
0.737705 0.114754 0.517596 Eu
0.557377 0.131148 0.517596 Eu
0.377049 0.147541 0.517596 Eu
0.196721 0.163934 0.517596 Eu
0.016393 0.180328 0.517596 Eu
0.836066 0.196721 0.517596 Eu
0.655738 0.213115 0.517596 Eu
0.475410 0.229508 0.517596 Eu
0.295082 0.245902 0.517596 Eu
0.114754 0.262295 0.517596 Eu
0.934426 0.278689 0.517596 Eu
0.754098 0.295082 0.517596 Eu
0.573770 0.311475 0.517596 Eu
0.393443 0.327869 0.517596 Eu
0.213115 0.344262 0.517596 Eu
0.032787 0.360656 0.517596 Eu
0.852459 0.377049 0.517596 Eu
0.672131 0.393443 0.517596 Eu
0.491803 0.409836 0.517596 Eu
0.311475 0.426230 0.517596 Eu
0.131148 0.442623 0.517596 Eu
0.950820 0.459016 0.517596 Eu
0.770492 0.475410 0.517596 Eu
0.590164 0.491803 0.517596 Eu
0.409836 0.508197 0.517596 Eu
0.229508 0.524590 0.517596 Eu
0.049180 0.540984 0.517596 Eu
0.868852 0.557377 0.517596 Eu
0.688525 0.573770 0.517596 Eu
0.508197 0.590164 0.517596 Eu
0.327869 0.606557 0.517596 Eu
0.147541 0.622951 0.517596 Eu
0.967213 0.639344 0.517596 Eu
0.786885 0.655738 0.517596 Eu
0.606557 0.672131 0.517596 Eu
0.426230 0.688525 0.517596 Eu
0.245902 0.704918 0.517596 Eu
0.065574 0.721311 0.517596 Eu
0.885246 0.737705 0.517596 Eu
0.704918 0.754098 0.517596 Eu
0.524590 0.770492 0.517596 Eu
0.344262 0.786885 0.517596 Eu
0.163934 0.803279 0.517596 Eu
0.983607 0.819672 0.517596 Eu
0.803279 0.836066 0.517596 Eu
0.622951 0.852459 0.517596 Eu
0.442623 0.868852 0.517596 Eu
0.262295 0.885246 0.517596 Eu
0.081967 0.901639 0.517596 Eu
0.901639 0.918033 0.517596 Eu
0.721311 0.934426 0.517596 Eu
0.540984 0.950820 0.517596 Eu
0.360656 0.967213 0.517596 Eu
0.180328 0.983607 0.517596 Eu
0.909836 0.008197 0.490427 Eu
0.729508 0.024590 0.490427 Eu
0.549180 0.040984 0.490427 Eu
0.368852 0.057377 0.490427 Eu
0.188525 0.073770 0.490427 Eu
0.008197 0.090164 0.490427 Eu
0.827869 0.106557 0.490427 Eu
0.647541 0.122951 0.490427 Eu
0.467213 0.139344 0.490427 Eu
0.286885 0.155738 0.490427 Eu
0.106557 0.172131 0.490427 Eu
0.926230 0.188525 0.490427 Eu
0.745902 0.204918 0.490427 Eu
0.565574 0.221311 0.490427 Eu
0.385246 0.237705 0.490427 Eu
0.204918 0.254098 0.490427 Eu
0.024590 0.270492 0.490427 Eu
0.844262 0.286885 0.490427 Eu
0.663934 0.303279 0.490427 Eu
0.483607 0.319672 0.490427 Eu
0.303279 0.336066 0.490427 Eu
0.122951 0.352459 0.490427 Eu
0.942623 0.368852 0.490427 Eu
0.762295 0.385246 0.490427 Eu
0.581967 0.401639 0.490427 Eu
0.401639 0.418033 0.490427 Eu
0.221311 0.434426 0.490427 Eu
0.040984 0.450820 0.490427 Eu
0.860656 0.467213 0.490427 Eu
0.680328 0.483607 0.490427 Eu
0.500000 0.500000 0.490427 Eu
0.319672 0.516393 0.490427 Eu
0.139344 0.532787 0.490427 Eu
0.959016 0.549180 0.490427 Eu
0.778689 0.565574 0.490427 Eu
0.598361 0.581967 0.490427 Eu
0.418033 0.598361 0.490427 Eu
0.237705 0.614754 0.490427 Eu
0.057377 0.631148 0.490427 Eu
0.877049 0.647541 0.490427 Eu
0.696721 0.663934 0.490427 Eu
0.516393 0.680328 0.490427 Eu
0.336066 0.696721 0.490427 Eu
0.155738 0.713115 0.490427 Eu
0.975410 0.729508 0.490427 Eu
0.795082 0.745902 0.490427 Eu
0.614754 0.762295 0.490427 Eu
0.434426 0.778689 0.490427 Eu
0.254098 0.795082 0.490427 Eu
0.073770 0.811475 0.490427 Eu
0.893443 0.827869 0.490427 Eu
0.713115 0.844262 0.490427 Eu
0.532787 0.860656 0.490427 Eu
0.352459 0.877049 0.490427 Eu
0.172131 0.893443 0.490427 Eu
0.991803 0.909836 0.490427 Eu
0.811475 0.926230 0.490427 Eu
0.631148 0.942623 0.490427 Eu
0.450820 0.959016 0.490427 Eu
0.270492 0.975410 0.490427 Eu
0.090164 0.991803 0.490427 Eu
0.000000 0.000000 0.463259 Eu
0.819672 0.016393 0.463259 Eu
0.639344 0.032787 0.463259 Eu
0.459016 0.049180 0.463259 Eu
0.278689 0.065574 0.463259 Eu
0.098361 0.081967 0.463259 Eu
0.918033 0.098361 0.463259 Eu
0.737705 0.114754 0.463259 Eu
0.557377 0.131148 0.463259 Eu
0.377049 0.147541 0.463259 Eu
0.196721 0.163934 0.463259 Eu
0.016393 0.180328 0.463259 Eu
0.836066 0.196721 0.463259 Eu
0.655738 0.213115 0.463259 Eu
0.475410 0.229508 0.463259 Eu
0.295082 0.245902 0.463259 Eu
0.114754 0.262295 0.463259 Eu
0.934426 0.278689 0.463259 Eu
0.754098 0.295082 0.463259 Eu
0.573770 0.311475 0.463259 Eu
0.393443 0.327869 0.463259 Eu
0.213115 0.344262 0.463259 Eu
0.032787 0.360656 0.463259 Eu
0.852459 0.377049 0.463259 Eu
0.672131 0.393443 0.463259 Eu
0.491803 0.409836 0.463259 Eu
0.311475 0.426230 0.463259 Eu
0.131148 0.442623 0.463259 Eu
0.950820 0.459016 0.463259 Eu
0.770492 0.475410 0.463259 Eu
0.590164 0.491803 0.463259 Eu
0.409836 0.508197 0.463259 Eu
0.229508 0.524590 0.463259 Eu
0.049180 0.540984 0.463259 Eu
0.868852 0.557377 0.463259 Eu
0.688525 0.573770 0.463259 Eu
0.508197 0.590164 0.463259 Eu
0.327869 0.606557 0.463259 Eu
0.147541 0.622951 0.463259 Eu
0.967213 0.639344 0.463259 Eu
0.786885 0.655738 0.463259 Eu
0.606557 0.672131 0.463259 Eu
0.426230 0.688525 0.463259 Eu
0.245902 0.704918 0.463259 Eu
0.065574 0.721311 0.463259 Eu
0.885246 0.737705 0.463259 Eu
0.704918 0.754098 0.463259 Eu
0.524590 0.770492 0.463259 Eu
0.344262 0.786885 0.463259 Eu
0.163934 0.803279 0.463259 Eu
0.983607 0.819672 0.463259 Eu
0.803279 0.836066 0.463259 Eu
0.622951 0.852459 0.463259 Eu
0.442623 0.868852 0.463259 Eu
0.262295 0.885246 0.463259 Eu
0.081967 0.901639 0.463259 Eu
0.901639 0.918033 0.463259 Eu
0.721311 0.934426 0.463259 Eu
0.540984 0.950820 0.463259 Eu
0.360656 0.967213 0.463259 Eu
0.180328 0.983607 0.463259 Eu
0.909836 0.008197 0.436090 Eu
0.729508 0.024590 0.436090 Eu
0.549180 0.040984 0.436090 Eu
0.368852 0.057377 0.436090 Eu
0.188525 0.073770 0.436090 Eu
0.008197 0.090164 0.436090 Eu
0.827869 0.106557 0.436090 Eu
0.647541 0.122951 0.436090 Eu
0.467213 0.139344 0.436090 Eu
0.286885 0.155738 0.436090 Eu
0.106557 0.172131 0.436090 Eu
0.926230 0.188525 0.436090 Eu
0.745902 0.204918 0.436090 Eu
0.565574 0.221311 0.436090 Eu
0.385246 0.237705 0.436090 Eu
0.204918 0.254098 0.436090 Eu
0.024590 0.270492 0.436090 Eu
0.844262 0.286885 0.436090 Eu
0.663934 0.303279 0.436090 Eu
0.483607 0.319672 0.436090 Eu
0.303279 0.336066 0.436090 Eu
0.122951 0.352459 0.436090 Eu
0.942623 0.368852 0.436090 Eu
0.762295 0.385246 0.436090 Eu
0.581967 0.401639 0.436090 Eu
0.401639 0.418033 0.436090 Eu
0.221311 0.434426 0.436090 Eu
0.040984 0.450820 0.436090 Eu
0.860656 0.467213 0.436090 Eu
0.680328 0.483607 0.436090 Eu
0.500000 0.500000 0.436090 Eu
0.319672 0.516393 0.436090 Eu
0.139344 0.532787 0.436090 Eu
0.959016 0.549180 0.436090 Eu
0.778689 0.565574 0.436090 Eu
0.598361 0.581967 0.436090 Eu
0.418033 0.598361 0.436090 Eu
0.237705 0.614754 0.436090 Eu
0.057377 0.631148 0.436090 Eu
0.877049 0.647541 0.436090 Eu
0.696721 0.663934 0.436090 Eu
0.516393 0.680328 0.436090 Eu
0.336066 0.696721 0.436090 Eu
0.155738 0.713115 0.436090 Eu
0.975410 0.729508 0.436090 Eu
0.795082 0.745902 0.436090 Eu
0.614754 0.762295 0.436090 Eu
0.434426 0.778689 0.436090 Eu
0.254098 0.795082 0.436090 Eu
0.073770 0.811475 0.436090 Eu
0.893443 0.827869 0.436090 Eu
0.713115 0.844262 0.436090 Eu
0.532787 0.860656 0.436090 Eu
0.352459 0.877049 0.436090 Eu
0.172131 0.893443 0.436090 Eu
0.991803 0.909836 0.436090 Eu
0.811475 0.926230 0.436090 Eu
0.631148 0.942623 0.436090 Eu
0.450820 0.959016 0.436090 Eu
0.270492 0.975410 0.436090 Eu
0.090164 0.991803 0.436090 Eu
0.000000 0.000000 0.408922 Eu
0.819672 0.016393 0.408922 Eu
0.639344 0.032787 0.408922 Eu
0.459016 0.049180 0.408922 Eu
0.278689 0.065574 0.408922 Eu
0.098361 0.081967 0.408922 Eu
0.918033 0.098361 0.408922 Eu
0.737705 0.114754 0.408922 Eu
0.557377 0.131148 0.408922 Eu
0.377049 0.147541 0.408922 Eu
0.196721 0.163934 0.408922 Eu
0.016393 0.180328 0.408922 Eu
0.836066 0.196721 0.408922 Eu
0.655738 0.213115 0.408922 Eu
0.475410 0.229508 0.408922 Eu
0.295082 0.245902 0.408922 Eu
0.114754 0.262295 0.408922 Eu
0.934426 0.278689 0.408922 Eu
0.754098 0.295082 0.408922 Eu
0.573770 0.311475 0.408922 Eu
0.393443 0.327869 0.408922 Eu
0.213115 0.344262 0.408922 Eu
0.032787 0.360656 0.408922 Eu
0.852459 0.377049 0.408922 Eu
0.672131 0.393443 0.408922 Eu
0.491803 0.409836 0.408922 Eu
0.311475 0.426230 0.408922 Eu
0.131148 0.442623 0.408922 Eu
0.950820 0.459016 0.408922 Eu
0.770492 0.475410 0.408922 Eu
0.590164 0.491803 0.408922 Eu
0.409836 0.508197 0.408922 Eu
0.229508 0.524590 0.408922 Eu
0.049180 0.540984 0.408922 Eu
0.868852 0.557377 0.408922 Eu
0.688525 0.573770 0.408922 Eu
0.508197 0.590164 0.408922 Eu
0.327869 0.606557 0.408922 Eu
0.147541 0.622951 0.408922 Eu
0.967213 0.639344 0.408922 Eu
0.786885 0.655738 0.408922 Eu
0.606557 0.672131 0.408922 Eu
0.426230 0.688525 0.408922 Eu
0.245902 0.704918 0.408922 Eu
0.065574 0.721311 0.408922 Eu
0.885246 0.737705 0.408922 Eu
0.704918 0.754098 0.408922 Eu
0.524590 0.770492 0.408922 Eu
0.344262 0.786885 0.408922 Eu
0.163934 0.803279 0.408922 Eu
0.983607 0.819672 0.408922 Eu
0.803279 0.836066 0.408922 Eu
0.622951 0.852459 0.408922 Eu
0.442623 0.868852 0.408922 Eu
0.262295 0.885246 0.408922 Eu
0.081967 0.901639 0.408922 Eu
0.901639 0.918033 0.408922 Eu
0.721311 0.934426 0.408922 Eu
0.540984 0.950820 0.408922 Eu
0.360656 0.967213 0.408922 Eu
0.180328 0.983607 0.408922 Eu
0.909836 0.008197 0.381753 Eu
0.729508 0.024590 0.381753 Eu
0.549180 0.040984 0.381753 Eu
0.368852 0.057377 0.381753 Eu
0.188525 0.073770 0.381753 Eu
0.008197 0.090164 0.381753 Eu
0.827869 0.106557 0.381753 Eu
0.647541 0.122951 0.381753 Eu
0.467213 0.139344 0.381753 Eu
0.286885 0.155738 0.381753 Eu
0.106557 0.172131 0.381753 Eu
0.926230 0.188525 0.381753 Eu
0.745902 0.204918 0.381753 Eu
0.565574 0.221311 0.381753 Eu
0.385246 0.237705 0.381753 Eu
0.204918 0.254098 0.381753 Eu
0.024590 0.270492 0.381753 Eu
0.844262 0.286885 0.381753 Eu
0.663934 0.303279 0.381753 Eu
0.483607 0.319672 0.381753 Eu
0.303279 0.336066 0.381753 Eu
0.122951 0.352459 0.381753 Eu
0.942623 0.368852 0.381753 Eu
0.762295 0.385246 0.381753 Eu
0.581967 0.401639 0.381753 Eu
0.401639 0.418033 0.381753 Eu
0.221311 0.434426 0.381753 Eu
0.040984 0.450820 0.381753 Eu
0.860656 0.467213 0.381753 Eu
0.680328 0.483607 0.381753 Eu
0.500000 0.500000 0.381753 Eu
0.319672 0.516393 0.381753 Eu
0.139344 0.532787 0.381753 Eu
0.959016 0.549180 0.381753 Eu
0.778689 0.565574 0.381753 Eu
0.598361 0.581967 0.381753 Eu
0.418033 0.598361 0.381753 Eu
0.237705 0.614754 0.381753 Eu
0.057377 0.631148 0.381753 Eu
0.877049 0.647541 0.381753 Eu
0.696721 0.663934 0.381753 Eu
0.516393 0.680328 0.381753 Eu
0.336066 0.696721 0.381753 Eu
0.155738 0.713115 0.381753 Eu
0.975410 0.729508 0.381753 Eu
0.795082 0.745902 0.381753 Eu
0.614754 0.762295 0.381753 Eu
0.434426 0.778689 0.381753 Eu
0.254098 0.795082 0.381753 Eu
0.073770 0.811475 0.381753 Eu
0.893443 0.827869 0.381753 Eu
0.713115 0.844262 0.381753 Eu
0.532787 0.860656 0.381753 Eu
0.352459 0.877049 0.381753 Eu
0.172131 0.893443 0.381753 Eu
0.991803 0.909836 0.381753 Eu
0.811475 0.926230 0.381753 Eu
0.631148 0.942623 0.381753 Eu
0.450820 0.959016 0.381753 Eu
0.270492 0.975410 0.381753 Eu
0.090164 0.991803 0.381753 Eu
0.000000 0.000000 0.354585 Eu
0.819672 0.016393 0.354585 Eu
0.639344 0.032787 0.354585 Eu
0.459016 0.049180 0.354585 Eu
0.278689 0.065574 0.354585 Eu
0.098361 0.081967 0.354585 Eu
0.918033 0.098361 0.354585 Eu
0.737705 0.114754 0.354585 Eu
0.557377 0.131148 0.354585 Eu
0.377049 0.147541 0.354585 Eu
0.196721 0.163934 0.354585 Eu
0.016393 0.180328 0.354585 Eu
0.836066 0.196721 0.354585 Eu
0.655738 0.213115 0.354585 Eu
0.475410 0.229508 0.354585 Eu
0.295082 0.245902 0.354585 Eu
0.114754 0.262295 0.354585 Eu
0.934426 0.278689 0.354585 Eu
0.754098 0.295082 0.354585 Eu
0.573770 0.311475 0.354585 Eu
0.393443 0.327869 0.354585 Eu
0.213115 0.344262 0.354585 Eu
0.032787 0.360656 0.354585 Eu
0.852459 0.377049 0.354585 Eu
0.672131 0.393443 0.354585 Eu
0.491803 0.409836 0.354585 Eu
0.311475 0.426230 0.354585 Eu
0.131148 0.442623 0.354585 Eu
0.950820 0.459016 0.354585 Eu
0.770492 0.475410 0.354585 Eu
0.590164 0.491803 0.354585 Eu
0.409836 0.508197 0.354585 Eu
0.229508 0.524590 0.354585 Eu
0.049180 0.540984 0.354585 Eu
0.868852 0.557377 0.354585 Eu
0.688525 0.573770 0.354585 Eu
0.508197 0.590164 0.354585 Eu
0.327869 0.606557 0.354585 Eu
0.147541 0.622951 0.354585 Eu
0.967213 0.639344 0.354585 Eu
0.786885 0.655738 0.354585 Eu
0.606557 0.672131 0.354585 Eu
0.426230 0.688525 0.354585 Eu
0.245902 0.704918 0.354585 Eu
0.065574 0.721311 0.354585 Eu
0.885246 0.737705 0.354585 Eu
0.704918 0.754098 0.354585 Eu
0.524590 0.770492 0.354585 Eu
0.344262 0.786885 0.354585 Eu
0.163934 0.803279 0.354585 Eu
0.983607 0.819672 0.354585 Eu
0.803279 0.836066 0.354585 Eu
0.622951 0.852459 0.354585 Eu
0.442623 0.868852 0.354585 Eu
0.262295 0.885246 0.354585 Eu
0.081967 0.901639 0.354585 Eu
0.901639 0.918033 0.354585 Eu
0.721311 0.934426 0.354585 Eu
0.540984 0.950820 0.354585 Eu
0.360656 0.967213 0.354585 Eu
0.180328 0.983607 0.354585 Eu
0.909836 0.008197 0.327416 Eu
0.729508 0.024590 0.327416 Eu
0.549180 0.040984 0.327416 Eu
0.368852 0.057377 0.327416 Eu
0.188525 0.073770 0.327416 Eu
0.008197 0.090164 0.327416 Eu
0.827869 0.106557 0.327416 Eu
0.647541 0.122951 0.327416 Eu
0.467213 0.139344 0.327416 Eu
0.286885 0.155738 0.327416 Eu
0.106557 0.172131 0.327416 Eu
0.926230 0.188525 0.327416 Eu
0.745902 0.204918 0.327416 Eu
0.565574 0.221311 0.327416 Eu
0.385246 0.237705 0.327416 Eu
0.204918 0.254098 0.327416 Eu
0.024590 0.270492 0.327416 Eu
0.844262 0.286885 0.327416 Eu
0.663934 0.303279 0.327416 Eu
0.483607 0.319672 0.327416 Eu
0.303279 0.336066 0.327416 Eu
0.122951 0.352459 0.327416 Eu
0.942623 0.368852 0.327416 Eu
0.762295 0.385246 0.327416 Eu
0.581967 0.401639 0.327416 Eu
0.401639 0.418033 0.327416 Eu
0.221311 0.434426 0.327416 Eu
0.040984 0.450820 0.327416 Eu
0.860656 0.467213 0.327416 Eu
0.680328 0.483607 0.327416 Eu
0.500000 0.500000 0.327416 Eu
0.319672 0.516393 0.327416 Eu
0.139344 0.532787 0.327416 Eu
0.959016 0.549180 0.327416 Eu
0.778689 0.565574 0.327416 Eu
0.598361 0.581967 0.327416 Eu
0.418033 0.598361 0.327416 Eu
0.237705 0.614754 0.327416 Eu
0.057377 0.631148 0.327416 Eu
0.877049 0.647541 0.327416 Eu
0.696721 0.663934 0.327416 Eu
0.516393 0.680328 0.327416 Eu
0.336066 0.696721 0.327416 Eu
0.155738 0.713115 0.327416 Eu
0.975410 0.729508 0.327416 Eu
0.795082 0.745902 0.327416 Eu
0.614754 0.762295 0.327416 Eu
0.434426 0.778689 0.327416 Eu
0.254098 0.795082 0.327416 Eu
0.073770 0.811475 0.327416 Eu
0.893443 0.827869 0.327416 Eu
0.713115 0.844262 0.327416 Eu
0.532787 0.860656 0.327416 Eu
0.352459 0.877049 0.327416 Eu
0.172131 0.893443 0.327416 Eu
0.991803 0.909836 0.327416 Eu
0.811475 0.926230 0.327416 Eu
0.631148 0.942623 0.327416 Eu
0.450820 0.959016 0.327416 Eu
0.270492 0.975410 0.327416 Eu
0.090164 0.991803 0.327416 Eu
0.000000 0.000000 0.300248 Eu
0.819672 0.016393 0.300248 Eu
0.639344 0.032787 0.300248 Eu
0.459016 0.049180 0.300248 Eu
0.278689 0.065574 0.300248 Eu
0.098361 0.081967 0.300248 Eu
0.918033 0.098361 0.300248 Eu
0.737705 0.114754 0.300248 Eu
0.557377 0.131148 0.300248 Eu
0.377049 0.147541 0.300248 Eu
0.196721 0.163934 0.300248 Eu
0.016393 0.180328 0.300248 Eu
0.836066 0.196721 0.300248 Eu
0.655738 0.213115 0.300248 Eu
0.475410 0.229508 0.300248 Eu
0.295082 0.245902 0.300248 Eu
0.114754 0.262295 0.300248 Eu
0.934426 0.278689 0.300248 Eu
0.754098 0.295082 0.300248 Eu
0.573770 0.311475 0.300248 Eu
0.393443 0.327869 0.300248 Eu
0.213115 0.344262 0.300248 Eu
0.032787 0.360656 0.300248 Eu
0.852459 0.377049 0.300248 Eu
0.672131 0.393443 0.300248 Eu
0.491803 0.409836 0.300248 Eu
0.311475 0.426230 0.300248 Eu
0.131148 0.442623 0.300248 Eu
0.950820 0.459016 0.300248 Eu
0.770492 0.475410 0.300248 Eu
0.590164 0.491803 0.300248 Eu
0.409836 0.508197 0.300248 Eu
0.229508 0.524590 0.300248 Eu
0.049180 0.540984 0.300248 Eu
0.868852 0.557377 0.300248 Eu
0.688525 0.573770 0.300248 Eu
0.508197 0.590164 0.300248 Eu
0.327869 0.606557 0.300248 Eu
0.147541 0.622951 0.300248 Eu
0.967213 0.639344 0.300248 Eu
0.786885 0.655738 0.300248 Eu
0.606557 0.672131 0.300248 Eu
0.426230 0.688525 0.300248 Eu
0.245902 0.704918 0.300248 Eu
0.065574 0.721311 0.300248 Eu
0.885246 0.737705 0.300248 Eu
0.704918 0.754098 0.300248 Eu
0.524590 0.770492 0.300248 Eu
0.344262 0.786885 0.300248 Eu
0.163934 0.803279 0.300248 Eu
0.983607 0.819672 0.300248 Eu
0.803279 0.836066 0.300248 Eu
0.622951 0.852459 0.300248 Eu
0.442623 0.868852 0.300248 Eu
0.262295 0.885246 0.300248 Eu
0.081967 0.901639 0.300248 Eu
0.901639 0.918033 0.300248 Eu
0.721311 0.934426 0.300248 Eu
0.540984 0.950820 0.300248 Eu
0.360656 0.967213 0.300248 Eu
0.180328 0.983607 0.300248 Eu
0.903846 0.519231 0.265469 In
0.865385 0.326923 0.265469 In
0.826923 0.134615 0.265469 In
0.711538 0.557692 0.265469 In
0.673077 0.365385 0.265469 In
0.634615 0.173077 0.265469 In
0.519231 0.596154 0.265469 In
0.480769 0.403846 0.265469 In
0.442308 0.211538 0.265469 In
0.403846 0.019231 0.265469 In
0.326923 0.634615 0.265469 In
0.288462 0.442308 0.265469 In
0.250000 0.250000 0.265469 In
0.211538 0.057692 0.265469 In
0.096154 0.480769 0.265469 In
0.057692 0.288462 0.265469 In
0.019231 0.096154 0.265469 In
0.019231 0.596154 0.265469 In
0.980769 0.403846 0.265469 In
0.942308 0.211538 0.265469 In
0.903846 0.019231 0.265469 In
0.826923 0.634615 0.265469 In
0.788462 0.442308 0.265469 In
0.750000 0.250000 0.265469 In
0.711538 0.057692 0.265469 In
0.596154 0.480769 0.265469 In
0.557692 0.288462 0.265469 In
0.519231 0.096154 0.265469 In
0.403846 0.519231 0.265469 In
0.365385 0.326923 0.265469 In
0.326923 0.134615 0.265469 In
0.211538 0.557692 0.265469 In
0.173077 0.365385 0.265469 In
0.134615 0.173077 0.265469 In
0.980769 0.903846 0.265469 In
0.942308 0.711538 0.265469 In
0.788462 0.942308 0.265469 In
0.750000 0.750000 0.265469 In
0.596154 0.980769 0.265469 In
0.557692 0.788462 0.265469 In
0.365385 0.826923 0.265469 In
0.173077 0.865385 0.265469 In
0.134615 0.673077 0.265469 In
0.096154 0.980769 0.265469 In
0.057692 0.788462 0.265469 In
0.865385 0.826923 0.265469 In
0.673077 0.865385 0.265469 In
0.634615 0.673077 0.265469 In
0.480769 0.903846 0.265469 In
0.442308 0.711538 0.265469 In
0.288462 0.942308 0.265469 In
0.250000 0.750000 0.265469 In
0.000000 0.000000 0.235972 In
0.923077 0.615385 0.235972 In
0.884615 0.423077 0.235972 In
0.846154 0.230769 0.235972 In
0.807692 0.038462 0.235972 In
0.692308 0.461538 0.235972 In
0.653846 0.269231 0.235972 In
0.615385 0.076923 0.235972 In
0.500000 0.500000 0.235972 In
0.461538 0.307692 0.235972 In
0.423077 0.115385 0.235972 In
0.307692 0.538462 0.235972 In
0.269231 0.346154 0.235972 In
0.230769 0.153846 0.235972 In
0.115385 0.576923 0.235972 In
0.076923 0.384615 0.235972 In
0.038462 0.192308 0.235972 In
0.000000 0.500000 0.235972 In
0.961538 0.307692 0.235972 In
0.923077 0.115385 0.235972 In
0.807692 0.538462 0.235972 In
0.769231 0.346154 0.235972 In
0.730769 0.153846 0.235972 In
0.615385 0.576923 0.235972 In
0.576923 0.384615 0.235972 In
0.538462 0.192308 0.235972 In
0.423077 0.615385 0.235972 In
0.384615 0.423077 0.235972 In
0.346154 0.230769 0.235972 In
0.307692 0.038462 0.235972 In
0.192308 0.461538 0.235972 In
0.153846 0.269231 0.235972 In
0.115385 0.076923 0.235972 In
0.961538 0.807692 0.235972 In
0.769231 0.846154 0.235972 In
0.730769 0.653846 0.235972 In
0.576923 0.884615 0.235972 In
0.538462 0.692308 0.235972 In
0.384615 0.923077 0.235972 In
0.346154 0.730769 0.235972 In
0.192308 0.961538 0.235972 In
0.153846 0.769231 0.235972 In
0.076923 0.884615 0.235972 In
0.038462 0.692308 0.235972 In
0.884615 0.923077 0.235972 In
0.846154 0.730769 0.235972 In
0.692308 0.961538 0.235972 In
0.653846 0.769231 0.235972 In
0.500000 1.000000 0.235972 In
0.461538 0.807692 0.235972 In
0.269231 0.846154 0.235972 In
0.230769 0.653846 0.235972 In
0.903846 0.519231 0.206476 In
0.865385 0.326923 0.206476 In
0.826923 0.134615 0.206476 In
0.711538 0.557692 0.206476 In
0.673077 0.365385 0.206476 In
0.634615 0.173077 0.206476 In
0.519231 0.596154 0.206476 In
0.480769 0.403846 0.206476 In
0.442308 0.211538 0.206476 In
0.403846 0.019231 0.206476 In
0.326923 0.634615 0.206476 In
0.288462 0.442308 0.206476 In
0.250000 0.250000 0.206476 In
0.211538 0.057692 0.206476 In
0.096154 0.480769 0.206476 In
0.057692 0.288462 0.206476 In
0.019231 0.096154 0.206476 In
0.019231 0.596154 0.206476 In
0.980769 0.403846 0.206476 In
0.942308 0.211538 0.206476 In
0.903846 0.019231 0.206476 In
0.826923 0.634615 0.206476 In
0.788462 0.442308 0.206476 In
0.750000 0.250000 0.206476 In
0.711538 0.057692 0.206476 In
0.596154 0.480769 0.206476 In
0.557692 0.288462 0.206476 In
0.519231 0.096154 0.206476 In
0.403846 0.519231 0.206476 In
0.365385 0.326923 0.206476 In
0.326923 0.134615 0.206476 In
0.211538 0.557692 0.206476 In
0.173077 0.365385 0.206476 In
0.134615 0.173077 0.206476 In
0.980769 0.903846 0.206476 In
0.942308 0.711538 0.206476 In
0.788462 0.942308 0.206476 In
0.750000 0.750000 0.206476 In
0.596154 0.980769 0.206476 In
0.557692 0.788462 0.206476 In
0.365385 0.826923 0.206476 In
0.173077 0.865385 0.206476 In
0.134615 0.673077 0.206476 In
0.096154 0.980769 0.206476 In
0.057692 0.788462 0.206476 In
0.865385 0.826923 0.206476 In
0.673077 0.865385 0.206476 In
0.634615 0.673077 0.206476 In
0.480769 0.903846 0.206476 In
0.442308 0.711538 0.206476 In
0.288462 0.942308 0.206476 In
0.250000 0.750000 0.206476 In
0.000000 0.000000 0.176979 In
0.923077 0.615385 0.176979 In
0.884615 0.423077 0.176979 In
0.846154 0.230769 0.176979 In
0.807692 0.038462 0.176979 In
0.692308 0.461538 0.176979 In
0.653846 0.269231 0.176979 In
0.615385 0.076923 0.176979 In
0.500000 0.500000 0.176979 In
0.461538 0.307692 0.176979 In
0.423077 0.115385 0.176979 In
0.307692 0.538462 0.176979 In
0.269231 0.346154 0.176979 In
0.230769 0.153846 0.176979 In
0.115385 0.576923 0.176979 In
0.076923 0.384615 0.176979 In
0.038462 0.192308 0.176979 In
0.000000 0.500000 0.176979 In
0.961538 0.307692 0.176979 In
0.923077 0.115385 0.176979 In
0.807692 0.538462 0.176979 In
0.769231 0.346154 0.176979 In
0.730769 0.153846 0.176979 In
0.615385 0.576923 0.176979 In
0.576923 0.384615 0.176979 In
0.538462 0.192308 0.176979 In
0.423077 0.615385 0.176979 In
0.384615 0.423077 0.176979 In
0.346154 0.230769 0.176979 In
0.307692 0.038462 0.176979 In
0.192308 0.461538 0.176979 In
0.153846 0.269231 0.176979 In
0.115385 0.076923 0.176979 In
0.961538 0.807692 0.176979 In
0.769231 0.846154 0.176979 In
0.730769 0.653846 0.176979 In
0.576923 0.884615 0.176979 In
0.538462 0.692308 0.176979 In
0.384615 0.923077 0.176979 In
0.346154 0.730769 0.176979 In
0.192308 0.961538 0.176979 In
0.153846 0.769231 0.176979 In
0.076923 0.884615 0.176979 In
0.038462 0.692308 0.176979 In
0.884615 0.923077 0.176979 In
0.846154 0.730769 0.176979 In
0.692308 0.961538 0.176979 In
0.653846 0.769231 0.176979 In
0.500000 1.000000 0.176979 In
0.461538 0.807692 0.176979 In
0.269231 0.846154 0.176979 In
0.230769 0.653846 0.176979 In
0.903846 0.519231 0.147483 In
0.865385 0.326923 0.147483 In
0.826923 0.134615 0.147483 In
0.711538 0.557692 0.147483 In
0.673077 0.365385 0.147483 In
0.634615 0.173077 0.147483 In
0.519231 0.596154 0.147483 In
0.480769 0.403846 0.147483 In
0.442308 0.211538 0.147483 In
0.403846 0.019231 0.147483 In
0.326923 0.634615 0.147483 In
0.288462 0.442308 0.147483 In
0.250000 0.250000 0.147483 In
0.211538 0.057692 0.147483 In
0.096154 0.480769 0.147483 In
0.057692 0.288462 0.147483 In
0.019231 0.096154 0.147483 In
0.019231 0.596154 0.147483 In
0.980769 0.403846 0.147483 In
0.942308 0.211538 0.147483 In
0.903846 0.019231 0.147483 In
0.826923 0.634615 0.147483 In
0.788462 0.442308 0.147483 In
0.750000 0.250000 0.147483 In
0.711538 0.057692 0.147483 In
0.596154 0.480769 0.147483 In
0.557692 0.288462 0.147483 In
0.519231 0.096154 0.147483 In
0.403846 0.519231 0.147483 In
0.365385 0.326923 0.147483 In
0.326923 0.134615 0.147483 In
0.211538 0.557692 0.147483 In
0.173077 0.365385 0.147483 In
0.134615 0.173077 0.147483 In
0.980769 0.903846 0.147483 In
0.942308 0.711538 0.147483 In
0.788462 0.942308 0.147483 In
0.750000 0.750000 0.147483 In
0.596154 0.980769 0.147483 In
0.557692 0.788462 0.147483 In
0.365385 0.826923 0.147483 In
0.173077 0.865385 0.147483 In
0.134615 0.673077 0.147483 In
0.096154 0.980769 0.147483 In
0.057692 0.788462 0.147483 In
0.865385 0.826923 0.147483 In
0.673077 0.865385 0.147483 In
0.634615 0.673077 0.147483 In
0.480769 0.903846 0.147483 In
0.442308 0.711538 0.147483 In
0.288462 0.942308 0.147483 In
0.250000 0.750000 0.147483 In
0.000000 0.000000 0.117986 In
0.923077 0.615385 0.117986 In
0.884615 0.423077 0.117986 In
0.846154 0.230769 0.117986 In
0.807692 0.038462 0.117986 In
0.692308 0.461538 0.117986 In
0.653846 0.269231 0.117986 In
0.615385 0.076923 0.117986 In
0.500000 0.500000 0.117986 In
0.461538 0.307692 0.117986 In
0.423077 0.115385 0.117986 In
0.307692 0.538462 0.117986 In
0.269231 0.346154 0.117986 In
0.230769 0.153846 0.117986 In
0.115385 0.576923 0.117986 In
0.076923 0.384615 0.117986 In
0.038462 0.192308 0.117986 In
0.000000 0.500000 0.117986 In
0.961538 0.307692 0.117986 In
0.923077 0.115385 0.117986 In
0.807692 0.538462 0.117986 In
0.769231 0.346154 0.117986 In
0.730769 0.153846 0.117986 In
0.615385 0.576923 0.117986 In
0.576923 0.384615 0.117986 In
0.538462 0.192308 0.117986 In
0.423077 0.615385 0.117986 In
0.384615 0.423077 0.117986 In
0.346154 0.230769 0.117986 In
0.307692 0.038462 0.117986 In
0.192308 0.461538 0.117986 In
0.153846 0.269231 0.117986 In
0.115385 0.076923 0.117986 In
0.961538 0.807692 0.117986 In
0.769231 0.846154 0.117986 In
0.730769 0.653846 0.117986 In
0.576923 0.884615 0.117986 In
0.538462 0.692308 0.117986 In
0.384615 0.923077 0.117986 In
0.346154 0.730769 0.117986 In
0.192308 0.961538 0.117986 In
0.153846 0.769231 0.117986 In
0.076923 0.884615 0.117986 In
0.038462 0.692308 0.117986 In
0.884615 0.923077 0.117986 In
0.846154 0.730769 0.117986 In
0.692308 0.961538 0.117986 In
0.653846 0.769231 0.117986 In
0.500000 1.000000 0.117986 In
0.461538 0.807692 0.117986 In
0.269231 0.846154 0.117986 In
0.230769 0.653846 0.117986 In
0.903846 0.519231 0.088490 In
0.865385 0.326923 0.088490 In
0.826923 0.134615 0.088490 In
0.711538 0.557692 0.088490 In
0.673077 0.365385 0.088490 In
0.634615 0.173077 0.088490 In
0.519231 0.596154 0.088490 In
0.480769 0.403846 0.088490 In
0.442308 0.211538 0.088490 In
0.403846 0.019231 0.088490 In
0.326923 0.634615 0.088490 In
0.288462 0.442308 0.088490 In
0.250000 0.250000 0.088490 In
0.211538 0.057692 0.088490 In
0.096154 0.480769 0.088490 In
0.057692 0.288462 0.088490 In
0.019231 0.096154 0.088490 In
0.019231 0.596154 0.088490 In
0.980769 0.403846 0.088490 In
0.942308 0.211538 0.088490 In
0.903846 0.019231 0.088490 In
0.826923 0.634615 0.088490 In
0.788462 0.442308 0.088490 In
0.750000 0.250000 0.088490 In
0.711538 0.057692 0.088490 In
0.596154 0.480769 0.088490 In
0.557692 0.288462 0.088490 In
0.519231 0.096154 0.088490 In
0.403846 0.519231 0.088490 In
0.365385 0.326923 0.088490 In
0.326923 0.134615 0.088490 In
0.211538 0.557692 0.088490 In
0.173077 0.365385 0.088490 In
0.134615 0.173077 0.088490 In
0.980769 0.903846 0.088490 In
0.942308 0.711538 0.088490 In
0.788462 0.942308 0.088490 In
0.750000 0.750000 0.088490 In
0.596154 0.980769 0.088490 In
0.557692 0.788462 0.088490 In
0.365385 0.826923 0.088490 In
0.173077 0.865385 0.088490 In
0.134615 0.673077 0.088490 In
0.096154 0.980769 0.088490 In
0.057692 0.788462 0.088490 In
0.865385 0.826923 0.088490 In
0.673077 0.865385 0.088490 In
0.634615 0.673077 0.088490 In
0.480769 0.903846 0.088490 In
0.442308 0.711538 0.088490 In
0.288462 0.942308 0.088490 In
0.250000 0.750000 0.088490 In
0.000000 0.000000 0.058993 In
0.923077 0.615385 0.058993 In
0.884615 0.423077 0.058993 In
0.846154 0.230769 0.058993 In
0.807692 0.038462 0.058993 In
0.692308 0.461538 0.058993 In
0.653846 0.269231 0.058993 In
0.615385 0.076923 0.058993 In
0.500000 0.500000 0.058993 In
0.461538 0.307692 0.058993 In
0.423077 0.115385 0.058993 In
0.307692 0.538462 0.058993 In
0.269231 0.346154 0.058993 In
0.230769 0.153846 0.058993 In
0.115385 0.576923 0.058993 In
0.076923 0.384615 0.058993 In
0.038462 0.192308 0.058993 In
0.000000 0.500000 0.058993 In
0.961538 0.307692 0.058993 In
0.923077 0.115385 0.058993 In
0.807692 0.538462 0.058993 In
0.769231 0.346154 0.058993 In
0.730769 0.153846 0.058993 In
0.615385 0.576923 0.058993 In
0.576923 0.384615 0.058993 In
0.538462 0.192308 0.058993 In
0.423077 0.615385 0.058993 In
0.384615 0.423077 0.058993 In
0.346154 0.230769 0.058993 In
0.307692 0.038462 0.058993 In
0.192308 0.461538 0.058993 In
0.153846 0.269231 0.058993 In
0.115385 0.076923 0.058993 In
0.961538 0.807692 0.058993 In
0.769231 0.846154 0.058993 In
0.730769 0.653846 0.058993 In
0.576923 0.884615 0.058993 In
0.538462 0.692308 0.058993 In
0.384615 0.923077 0.058993 In
0.346154 0.730769 0.058993 In
0.192308 0.961538 0.058993 In
0.153846 0.769231 0.058993 In
0.076923 0.884615 0.058993 In
0.038462 0.692308 0.058993 In
0.884615 0.923077 0.058993 In
0.846154 0.730769 0.058993 In
0.692308 0.961538 0.058993 In
0.653846 0.769231 0.058993 In
0.500000 1.000000 0.058993 In
0.461538 0.807692 0.058993 In
0.269231 0.846154 0.058993 In
0.230769 0.653846 0.058993 In
0.903846 0.519231 0.029497 In
0.865385 0.326923 0.029497 In
0.826923 0.134615 0.029497 In
0.711538 0.557692 0.029497 In
0.673077 0.365385 0.029497 In
0.634615 0.173077 0.029497 In
0.519231 0.596154 0.029497 In
0.480769 0.403846 0.029497 In
0.442308 0.211538 0.029497 In
0.403846 0.019231 0.029497 In
0.326923 0.634615 0.029497 In
0.288462 0.442308 0.029497 In
0.250000 0.250000 0.029497 In
0.211538 0.057692 0.029497 In
0.096154 0.480769 0.029497 In
0.057692 0.288462 0.029497 In
0.019231 0.096154 0.029497 In
0.019231 0.596154 0.029497 In
0.980769 0.403846 0.029497 In
0.942308 0.211538 0.029497 In
0.903846 0.019231 0.029497 In
0.826923 0.634615 0.029497 In
0.788462 0.442308 0.029497 In
0.750000 0.250000 0.029497 In
0.711538 0.057692 0.029497 In
0.596154 0.480769 0.029497 In
0.557692 0.288462 0.029497 In
0.519231 0.096154 0.029497 In
0.403846 0.519231 0.029497 In