Eu477 In405 Sb450 H196 S477
1.0
30.734493 -0.000000 -0.000000
-0.000000 30.734493 -0.000000
-0.000000 -0.000000 109.833150
Eu In Sb H S
477 405 450 196 477
direct
0.000000 0.000000 0.517596 Eu
0.905660 0.169811 0.517596 Eu
0.811321 0.339623 0.517596 Eu
0.716981 0.509434 0.517596 Eu
0.622642 0.679245 0.517596 Eu
0.528302 0.849057 0.517596 Eu
0.433962 0.018868 0.517596 Eu
0.339623 0.188679 0.517596 Eu
0.245283 0.358491 0.517596 Eu
0.150943 0.528302 0.517596 Eu
0.056604 0.698113 0.517596 Eu
0.962264 0.867925 0.517596 Eu
0.867925 0.037736 0.517596 Eu
0.773585 0.207547 0.517596 Eu
0.679245 0.377358 0.517596 Eu
0.584906 0.547170 0.517596 Eu
0.490566 0.716981 0.517596 Eu
0.396226 0.886792 0.517596 Eu
0.301887 0.056604 0.517596 Eu
0.207547 0.226415 0.517596 Eu
0.113208 0.396226 0.517596 Eu
0.018868 0.566038 0.517596 Eu
0.924528 0.735849 0.517596 Eu
0.830189 0.905660 0.517596 Eu
0.735849 0.075472 0.517596 Eu
0.641509 0.245283 0.517596 Eu
0.547170 0.415094 0.517596 Eu
0.452830 0.584906 0.517596 Eu
0.358491 0.754717 0.517596 Eu
0.264151 0.924528 0.517596 Eu
0.169811 0.094340 0.517596 Eu
0.075472 0.264151 0.517596 Eu
0.981132 0.433962 0.517596 Eu
0.886792 0.603774 0.517596 Eu
0.792453 0.773585 0.517596 Eu
0.698113 0.943396 0.517596 Eu
0.603774 0.113208 0.517596 Eu
0.509434 0.283019 0.517596 Eu
0.415094 0.452830 0.517596 Eu
0.320755 0.622642 0.517596 Eu
0.226415 0.792453 0.517596 Eu
0.132075 0.962264 0.517596 Eu
0.037736 0.132075 0.517596 Eu
0.943396 0.301887 0.517596 Eu
0.849057 0.471698 0.517596 Eu
0.754717 0.641509 0.517596 Eu
0.660377 0.811321 0.517596 Eu
0.566038 0.981132 0.517596 Eu
0.471698 0.150943 0.517596 Eu
0.377358 0.320755 0.517596 Eu
0.283019 0.490566 0.517596 Eu
0.188679 0.660377 0.517596 Eu
0.094340 0.830189 0.517596 Eu
0.952830 0.084906 0.490427 Eu
0.858491 0.254717 0.490427 Eu
0.764151 0.424528 0.490427 Eu
0.669811 0.594340 0.490427 Eu
0.575472 0.764151 0.490427 Eu
0.481132 0.933962 0.490427 Eu
0.386792 0.103774 0.490427 Eu
0.292453 0.273585 0.490427 Eu
0.198113 0.443396 0.490427 Eu
0.103774 0.613208 0.490427 Eu
0.009434 0.783019 0.490427 Eu
0.915094 0.952830 0.490427 Eu
0.820755 0.122642 0.490427 Eu
0.726415 0.292453 0.490427 Eu
0.632075 0.462264 0.490427 Eu
0.537736 0.632075 0.490427 Eu
0.443396 0.801887 0.490427 Eu
0.349057 0.971698 0.490427 Eu
0.254717 0.141509 0.490427 Eu
0.160377 0.311321 0.490427 Eu
0.066038 0.481132 0.490427 Eu
0.971698 0.650943 0.490427 Eu
0.877358 0.820755 0.490427 Eu
0.783019 0.990566 0.490427 Eu
0.688679 0.160377 0.490427 Eu
0.594340 0.330189 0.490427 Eu
0.500000 0.500000 0.490427 Eu
0.405660 0.669811 0.490427 Eu
0.311321 0.839623 0.490427 Eu
0.216981 0.009434 0.490427 Eu
0.122642 0.179245 0.490427 Eu
0.028302 0.349057 0.490427 Eu
0.933962 0.518868 0.490427 Eu
0.839623 0.688679 0.490427 Eu
0.745283 0.858491 0.490427 Eu
0.650943 0.028302 0.490427 Eu
0.556604 0.198113 0.490427 Eu
0.462264 0.367925 0.490427 Eu
0.367925 0.537736 0.490427 Eu
0.273585 0.707547 0.490427 Eu
0.179245 0.877358 0.490427 Eu
0.084906 0.047170 0.490427 Eu
0.990566 0.216981 0.490427 Eu
0.896226 0.386792 0.490427 Eu
0.801887 0.556604 0.490427 Eu
0.707547 0.726415 0.490427 Eu
0.613208 0.896226 0.490427 Eu
0.518868 0.066038 0.490427 Eu
0.424528 0.235849 0.490427 Eu
0.330189 0.405660 0.490427 Eu
0.235849 0.575472 0.490427 Eu
0.141509 0.745283 0.490427 Eu
0.047170 0.915094 0.490427 Eu
0.000000 0.000000 0.463259 Eu
0.905660 0.169811 0.463259 Eu
0.811321 0.339623 0.463259 Eu
0.716981 0.509434 0.463259 Eu
0.622642 0.679245 0.463259 Eu
0.528302 0.849057 0.463259 Eu
0.433962 0.018868 0.463259 Eu
0.339623 0.188679 0.463259 Eu
0.245283 0.358491 0.463259 Eu
0.150943 0.528302 0.463259 Eu
0.056604 0.698113 0.463259 Eu
0.962264 0.867925 0.463259 Eu
0.867925 0.037736 0.463259 Eu
0.773585 0.207547 0.463259 Eu
0.679245 0.377358 0.463259 Eu
0.584906 0.547170 0.463259 Eu
0.490566 0.716981 0.463259 Eu
0.396226 0.886792 0.463259 Eu
0.301887 0.056604 0.463259 Eu
0.207547 0.226415 0.463259 Eu
0.113208 0.396226 0.463259 Eu
0.018868 0.566038 0.463259 Eu
0.924528 0.735849 0.463259 Eu
0.830189 0.905660 0.463259 Eu
0.735849 0.075472 0.463259 Eu
0.641509 0.245283 0.463259 Eu
0.547170 0.415094 0.463259 Eu
0.452830 0.584906 0.463259 Eu
0.358491 0.754717 0.463259 Eu
0.264151 0.924528 0.463259 Eu
0.169811 0.094340 0.463259 Eu
0.075472 0.264151 0.463259 Eu
0.981132 0.433962 0.463259 Eu
0.886792 0.603774 0.463259 Eu
0.792453 0.773585 0.463259 Eu
0.698113 0.943396 0.463259 Eu
0.603774 0.113208 0.463259 Eu
0.509434 0.283019 0.463259 Eu
0.415094 0.452830 0.463259 Eu
0.320755 0.622642 0.463259 Eu
0.226415 0.792453 0.463259 Eu
0.132075 0.962264 0.463259 Eu
0.037736 0.132075 0.463259 Eu
0.943396 0.301887 0.463259 Eu
0.849057 0.471698 0.463259 Eu
0.754717 0.641509 0.463259 Eu
0.660377 0.811321 0.463259 Eu
0.566038 0.981132 0.463259 Eu
0.471698 0.150943 0.463259 Eu
0.377358 0.320755 0.463259 Eu
0.283019 0.490566 0.463259 Eu
0.188679 0.660377 0.463259 Eu
0.094340 0.830189 0.463259 Eu
0.952830 0.084906 0.436090 Eu
0.858491 0.254717 0.436090 Eu
0.764151 0.424528 0.436090 Eu
0.669811 0.594340 0.436090 Eu
0.575472 0.764151 0.436090 Eu
0.481132 0.933962 0.436090 Eu
0.386792 0.103774 0.436090 Eu
0.292453 0.273585 0.436090 Eu
0.198113 0.443396 0.436090 Eu
0.103774 0.613208 0.436090 Eu
0.009434 0.783019 0.436090 Eu
0.915094 0.952830 0.436090 Eu
0.820755 0.122642 0.436090 Eu
0.726415 0.292453 0.436090 Eu
0.632075 0.462264 0.436090 Eu
0.537736 0.632075 0.436090 Eu
0.443396 0.801887 0.436090 Eu
0.349057 0.971698 0.436090 Eu
0.254717 0.141509 0.436090 Eu
0.160377 0.311321 0.436090 Eu
0.066038 0.481132 0.436090 Eu
0.971698 0.650943 0.436090 Eu
0.877358 0.820755 0.436090 Eu
0.783019 0.990566 0.436090 Eu
0.688679 0.160377 0.436090 Eu
0.594340 0.330189 0.436090 Eu
0.500000 0.500000 0.436090 Eu
0.405660 0.669811 0.436090 Eu
0.311321 0.839623 0.436090 Eu
0.216981 0.009434 0.436090 Eu
0.122642 0.179245 0.436090 Eu
0.028302 0.349057 0.436090 Eu
0.933962 0.518868 0.436090 Eu
0.839623 0.688679 0.436090 Eu
0.745283 0.858491 0.436090 Eu
0.650943 0.028302 0.436090 Eu
0.556604 0.198113 0.436090 Eu
0.462264 0.367925 0.436090 Eu
0.367925 0.537736 0.436090 Eu
0.273585 0.707547 0.436090 Eu
0.179245 0.877358 0.436090 Eu
0.084906 0.047170 0.436090 Eu
0.990566 0.216981 0.436090 Eu
0.896226 0.386792 0.436090 Eu
0.801887 0.556604 0.436090 Eu
0.707547 0.726415 0.436090 Eu
0.613208 0.896226 0.436090 Eu
0.518868 0.066038 0.436090 Eu
0.424528 0.235849 0.436090 Eu
0.330189 0.405660 0.436090 Eu
0.235849 0.575472 0.436090 Eu
0.141509 0.745283 0.436090 Eu
0.047170 0.915094 0.436090 Eu
0.000000 0.000000 0.408922 Eu
0.905660 0.169811 0.408922 Eu
0.811321 0.339623 0.408922 Eu
0.716981 0.509434 0.408922 Eu
0.622642 0.679245 0.408922 Eu
0.528302 0.849057 0.408922 Eu
0.433962 0.018868 0.408922 Eu
0.339623 0.188679 0.408922 Eu
0.245283 0.358491 0.408922 Eu
0.150943 0.528302 0.408922 Eu
0.056604 0.698113 0.408922 Eu
0.962264 0.867925 0.408922 Eu
0.867925 0.037736 0.408922 Eu
0.773585 0.207547 0.408922 Eu
0.679245 0.377358 0.408922 Eu
0.584906 0.547170 0.408922 Eu
0.490566 0.716981 0.408922 Eu
0.396226 0.886792 0.408922 Eu
0.301887 0.056604 0.408922 Eu
0.207547 0.226415 0.408922 Eu
0.113208 0.396226 0.408922 Eu
0.018868 0.566038 0.408922 Eu
0.924528 0.735849 0.408922 Eu
0.830189 0.905660 0.408922 Eu
0.735849 0.075472 0.408922 Eu
0.641509 0.245283 0.408922 Eu
0.547170 0.415094 0.408922 Eu
0.452830 0.584906 0.408922 Eu
0.358491 0.754717 0.408922 Eu
0.264151 0.924528 0.408922 Eu
0.169811 0.094340 0.408922 Eu
0.075472 0.264151 0.408922 Eu
0.981132 0.433962 0.408922 Eu
0.886792 0.603774 0.408922 Eu
0.792453 0.773585 0.408922 Eu
0.698113 0.943396 0.408922 Eu
0.603774 0.113208 0.408922 Eu
0.509434 0.283019 0.408922 Eu
0.415094 0.452830 0.408922 Eu
0.320755 0.622642 0.408922 Eu
0.226415 0.792453 0.408922 Eu
0.132075 0.962264 0.408922 Eu
0.037736 0.132075 0.408922 Eu
0.943396 0.301887 0.408922 Eu
0.849057 0.471698 0.408922 Eu
0.754717 0.641509 0.408922 Eu
0.660377 0.811321 0.408922 Eu
0.566038 0.981132 0.408922 Eu
0.471698 0.150943 0.408922 Eu
0.377358 0.320755 0.408922 Eu
0.283019 0.490566 0.408922 Eu
0.188679 0.660377 0.408922 Eu
0.094340 0.830189 0.408922 Eu
0.952830 0.084906 0.381753 Eu
0.858491 0.254717 0.381753 Eu
0.764151 0.424528 0.381753 Eu
0.669811 0.594340 0.381753 Eu
0.575472 0.764151 0.381753 Eu
0.481132 0.933962 0.381753 Eu
0.386792 0.103774 0.381753 Eu
0.292453 0.273585 0.381753 Eu
0.198113 0.443396 0.381753 Eu
0.103774 0.613208 0.381753 Eu
0.009434 0.783019 0.381753 Eu
0.915094 0.952830 0.381753 Eu
0.820755 0.122642 0.381753 Eu
0.726415 0.292453 0.381753 Eu
0.632075 0.462264 0.381753 Eu
0.537736 0.632075 0.381753 Eu
0.443396 0.801887 0.381753 Eu
0.349057 0.971698 0.381753 Eu
0.254717 0.141509 0.381753 Eu
0.160377 0.311321 0.381753 Eu
0.066038 0.481132 0.381753 Eu
0.971698 0.650943 0.381753 Eu
0.877358 0.820755 0.381753 Eu
0.783019 0.990566 0.381753 Eu
0.688679 0.160377 0.381753 Eu
0.594340 0.330189 0.381753 Eu
0.500000 0.500000 0.381753 Eu
0.405660 0.669811 0.381753 Eu
0.311321 0.839623 0.381753 Eu
0.216981 0.009434 0.381753 Eu
0.122642 0.179245 0.381753 Eu
0.028302 0.349057 0.381753 Eu
0.933962 0.518868 0.381753 Eu
0.839623 0.688679 0.381753 Eu
0.745283 0.858491 0.381753 Eu
0.650943 0.028302 0.381753 Eu
0.556604 0.198113 0.381753 Eu
0.462264 0.367925 0.381753 Eu
0.367925 0.537736 0.381753 Eu
0.273585 0.707547 0.381753 Eu
0.179245 0.877358 0.381753 Eu
0.084906 0.047170 0.381753 Eu
0.990566 0.216981 0.381753 Eu
0.896226 0.386792 0.381753 Eu
0.801887 0.556604 0.381753 Eu
0.707547 0.726415 0.381753 Eu
0.613208 0.896226 0.381753 Eu
0.518868 0.066038 0.381753 Eu
0.424528 0.235849 0.381753 Eu
0.330189 0.405660 0.381753 Eu
0.235849 0.575472 0.381753 Eu
0.141509 0.745283 0.381753 Eu
0.047170 0.915094 0.381753 Eu
0.000000 0.000000 0.354585 Eu
0.905660 0.169811 0.354585 Eu
0.811321 0.339623 0.354585 Eu
0.716981 0.509434 0.354585 Eu
0.622642 0.679245 0.354585 Eu
0.528302 0.849057 0.354585 Eu
0.433962 0.018868 0.354585 Eu
0.339623 0.188679 0.354585 Eu
0.245283 0.358491 0.354585 Eu
0.150943 0.528302 0.354585 Eu
0.056604 0.698113 0.354585 Eu
0.962264 0.867925 0.354585 Eu
0.867925 0.037736 0.354585 Eu
0.773585 0.207547 0.354585 Eu
0.679245 0.377358 0.354585 Eu
0.584906 0.547170 0.354585 Eu
0.490566 0.716981 0.354585 Eu
0.396226 0.886792 0.354585 Eu
0.301887 0.056604 0.354585 Eu
0.207547 0.226415 0.354585 Eu
0.113208 0.396226 0.354585 Eu
0.018868 0.566038 0.354585 Eu
0.924528 0.735849 0.354585 Eu
0.830189 0.905660 0.354585 Eu
0.735849 0.075472 0.354585 Eu
0.641509 0.245283 0.354585 Eu
0.547170 0.415094 0.354585 Eu
0.452830 0.584906 0.354585 Eu
0.358491 0.754717 0.354585 Eu
0.264151 0.924528 0.354585 Eu
0.169811 0.094340 0.354585 Eu
0.075472 0.264151 0.354585 Eu
0.981132 0.433962 0.354585 Eu
0.886792 0.603774 0.354585 Eu
0.792453 0.773585 0.354585 Eu
0.698113 0.943396 0.354585 Eu
0.603774 0.113208 0.354585 Eu
0.509434 0.283019 0.354585 Eu
0.415094 0.452830 0.354585 Eu
0.320755 0.622642 0.354585 Eu
0.226415 0.792453 0.354585 Eu
0.132075 0.962264 0.354585 Eu
0.037736 0.132075 0.354585 Eu
0.943396 0.301887 0.354585 Eu
0.849057 0.471698 0.354585 Eu
0.754717 0.641509 0.354585 Eu
0.660377 0.811321 0.354585 Eu
0.566038 0.981132 0.354585 Eu
0.471698 0.150943 0.354585 Eu
0.377358 0.320755 0.354585 Eu
0.283019 0.490566 0.354585 Eu
0.188679 0.660377 0.354585 Eu
0.094340 0.830189 0.354585 Eu
0.952830 0.084906 0.327416 Eu
0.858491 0.254717 0.327416 Eu
0.764151 0.424528 0.327416 Eu
0.669811 0.594340 0.327416 Eu
0.575472 0.764151 0.327416 Eu
0.481132 0.933962 0.327416 Eu
0.386792 0.103774 0.327416 Eu
0.292453 0.273585 0.327416 Eu
0.198113 0.443396 0.327416 Eu
0.103774 0.613208 0.327416 Eu
0.009434 0.783019 0.327416 Eu
0.915094 0.952830 0.327416 Eu
0.820755 0.122642 0.327416 Eu
0.726415 0.292453 0.327416 Eu
0.632075 0.462264 0.327416 Eu
0.537736 0.632075 0.327416 Eu
0.443396 0.801887 0.327416 Eu
0.349057 0.971698 0.327416 Eu
0.254717 0.141509 0.327416 Eu
0.160377 0.311321 0.327416 Eu
0.066038 0.481132 0.327416 Eu
0.971698 0.650943 0.327416 Eu
0.877358 0.820755 0.327416 Eu
0.783019 0.990566 0.327416 Eu
0.688679 0.160377 0.327416 Eu
0.594340 0.330189 0.327416 Eu
0.500000 0.500000 0.327416 Eu
0.405660 0.669811 0.327416 Eu
0.311321 0.839623 0.327416 Eu
0.216981 0.009434 0.327416 Eu
0.122642 0.179245 0.327416 Eu
0.028302 0.349057 0.327416 Eu
0.933962 0.518868 0.327416 Eu
0.839623 0.688679 0.327416 Eu
0.745283 0.858491 0.327416 Eu
0.650943 0.028302 0.327416 Eu
0.556604 0.198113 0.327416 Eu
0.462264 0.367925 0.327416 Eu
0.367925 0.537736 0.327416 Eu
0.273585 0.707547 0.327416 Eu
0.179245 0.877358 0.327416 Eu
0.084906 0.047170 0.327416 Eu
0.990566 0.216981 0.327416 Eu
0.896226 0.386792 0.327416 Eu
0.801887 0.556604 0.327416 Eu
0.707547 0.726415 0.327416 Eu
0.613208 0.896226 0.327416 Eu
0.518868 0.066038 0.327416 Eu
0.424528 0.235849 0.327416 Eu
0.330189 0.405660 0.327416 Eu
0.235849 0.575472 0.327416 Eu
0.141509 0.745283 0.327416 Eu
0.047170 0.915094 0.327416 Eu
0.000000 0.000000 0.300248 Eu
0.905660 0.169811 0.300248 Eu
0.811321 0.339623 0.300248 Eu
0.716981 0.509434 0.300248 Eu
0.622642 0.679245 0.300248 Eu
0.528302 0.849057 0.300248 Eu
0.433962 0.018868 0.300248 Eu
0.339623 0.188679 0.300248 Eu
0.245283 0.358491 0.300248 Eu
0.150943 0.528302 0.300248 Eu
0.056604 0.698113 0.300248 Eu
0.962264 0.867925 0.300248 Eu
0.867925 0.037736 0.300248 Eu
0.773585 0.207547 0.300248 Eu
0.679245 0.377358 0.300248 Eu
0.584906 0.547170 0.300248 Eu
0.490566 0.716981 0.300248 Eu
0.396226 0.886792 0.300248 Eu
0.301887 0.056604 0.300248 Eu
0.207547 0.226415 0.300248 Eu
0.113208 0.396226 0.300248 Eu
0.018868 0.566038 0.300248 Eu
0.924528 0.735849 0.300248 Eu
0.830189 0.905660 0.300248 Eu
0.735849 0.075472 0.300248 Eu
0.641509 0.245283 0.300248 Eu
0.547170 0.415094 0.300248 Eu
0.452830 0.584906 0.300248 Eu
0.358491 0.754717 0.300248 Eu
0.264151 0.924528 0.300248 Eu
0.169811 0.094340 0.300248 Eu
0.075472 0.264151 0.300248 Eu
0.981132 0.433962 0.300248 Eu
0.886792 0.603774 0.300248 Eu
0.792453 0.773585 0.300248 Eu
0.698113 0.943396 0.300248 Eu
0.603774 0.113208 0.300248 Eu
0.509434 0.283019 0.300248 Eu
0.415094 0.452830 0.300248 Eu
0.320755 0.622642 0.300248 Eu
0.226415 0.792453 0.300248 Eu
0.132075 0.962264 0.300248 Eu
0.037736 0.132075 0.300248 Eu
0.943396 0.301887 0.300248 Eu
0.849057 0.471698 0.300248 Eu
0.754717 0.641509 0.300248 Eu
0.660377 0.811321 0.300248 Eu
0.566038 0.981132 0.300248 Eu
0.471698 0.150943 0.300248 Eu
0.377358 0.320755 0.300248 Eu
0.283019 0.490566 0.300248 Eu
0.188679 0.660377 0.300248 Eu
0.094340 0.830189 0.300248 Eu
0.100000 0.033333 0.265469 In
0.300000 0.100000 0.265469 In
0.500000 0.166667 0.265469 In
0.700000 0.233333 0.265469 In
0.900000 0.300000 0.265469 In
0.100000 0.366667 0.265469 In
0.300000 0.433333 0.265469 In
0.500000 0.500000 0.265469 In
0.700000 0.566667 0.265469 In
0.900000 0.633333 0.265469 In
0.100000 0.700000 0.265469 In
0.300000 0.766667 0.265469 In
0.500000 0.833333 0.265469 In
0.700000 0.900000 0.265469 In
0.900000 0.966667 0.265469 In
0.433333 0.366667 0.265469 In
0.633333 0.433333 0.265469 In
0.833333 0.500000 0.265469 In
0.033333 0.566667 0.265469 In
0.233333 0.633333 0.265469 In
0.433333 0.700000 0.265469 In
0.633333 0.766667 0.265469 In
0.833333 0.833333 0.265469 In
0.033333 0.900000 0.265469 In
0.233333 0.966667 0.265469 In
0.433333 0.033333 0.265469 In
0.633333 0.100000 0.265469 In
0.833333 0.166667 0.265469 In
0.033333 0.233333 0.265469 In
0.233333 0.300000 0.265469 In
0.766667 0.700000 0.265469 In
0.966667 0.766667 0.265469 In
0.166667 0.833333 0.265469 In
0.366667 0.900000 0.265469 In
0.566667 0.966667 0.265469 In
0.766667 0.033333 0.265469 In
0.966667 0.100000 0.265469 In
0.166667 0.166667 0.265469 In
0.366667 0.233333 0.265469 In
0.566667 0.300000 0.265469 In
0.766667 0.366667 0.265469 In
0.966667 0.433333 0.265469 In
0.166667 0.500000 0.265469 In
0.366667 0.566667 0.265469 In
0.566667 0.633333 0.265469 In
0.000000 0.000000 0.235972 In
0.200000 0.066667 0.235972 In
0.400000 0.133333 0.235972 In
0.600000 0.200000 0.235972 In
0.800000 0.266667 0.235972 In
0.000000 0.333333 0.235972 In
0.200000 0.400000 0.235972 In
0.400000 0.466667 0.235972 In
0.600000 0.533333 0.235972 In
0.800000 0.600000 0.235972 In
0.000000 0.666667 0.235972 In
0.200000 0.733333 0.235972 In
0.400000 0.800000 0.235972 In
0.600000 0.866667 0.235972 In
0.800000 0.933333 0.235972 In
0.333333 0.333333 0.235972 In
0.533333 0.400000 0.235972 In
0.733333 0.466667 0.235972 In
0.933333 0.533333 0.235972 In
0.133333 0.600000 0.235972 In
0.333333 0.666667 0.235972 In
0.533333 0.733333 0.235972 In
0.733333 0.800000 0.235972 In
0.933333 0.866667 0.235972 In
0.133333 0.933333 0.235972 In
0.333333 1.000000 0.235972 In
0.533333 0.066667 0.235972 In
0.733333 0.133333 0.235972 In
0.933333 0.200000 0.235972 In
0.133333 0.266667 0.235972 In
0.666667 0.666667 0.235972 In
0.866667 0.733333 0.235972 In
0.066667 0.800000 0.235972 In
0.266667 0.866667 0.235972 In
0.466667 0.933333 0.235972 In
0.666667 0.000000 0.235972 In
0.866667 0.066667 0.235972 In
0.066667 0.133333 0.235972 In
0.266667 0.200000 0.235972 In
0.466667 0.266667 0.235972 In
0.666667 0.333333 0.235972 In
0.866667 0.400000 0.235972 In
0.066667 0.466667 0.235972 In
0.266667 0.533333 0.235972 In
0.466667 0.600000 0.235972 In
0.100000 0.033333 0.206476 In
0.300000 0.100000 0.206476 In
0.500000 0.166667 0.206476 In
0.700000 0.233333 0.206476 In
0.900000 0.300000 0.206476 In
0.100000 0.366667 0.206476 In
0.300000 0.433333 0.206476 In
0.500000 0.500000 0.206476 In
0.700000 0.566667 0.206476 In
0.900000 0.633333 0.206476 In
0.100000 0.700000 0.206476 In
0.300000 0.766667 0.206476 In
0.500000 0.833333 0.206476 In
0.700000 0.900000 0.206476 In
0.900000 0.966667 0.206476 In
0.433333 0.366667 0.206476 In
0.633333 0.433333 0.206476 In
0.833333 0.500000 0.206476 In
0.033333 0.566667 0.206476 In
0.233333 0.633333 0.206476 In
0.433333 0.700000 0.206476 In
0.633333 0.766667 0.206476 In
0.833333 0.833333 0.206476 In
0.033333 0.900000 0.206476 In
0.233333 0.966667 0.206476 In
0.433333 0.033333 0.206476 In
0.633333 0.100000 0.206476 In
0.833333 0.166667 0.206476 In
0.033333 0.233333 0.206476 In
0.233333 0.300000 0.206476 In
0.766667 0.700000 0.206476 In
0.966667 0.766667 0.206476 In
0.166667 0.833333 0.206476 In
0.366667 0.900000 0.206476 In
0.566667 0.966667 0.206476 In
0.766667 0.033333 0.206476 In
0.966667 0.100000 0.206476 In
0.166667 0.166667 0.206476 In
0.366667 0.233333 0.206476 In
0.566667 0.300000 0.206476 In
0.766667 0.366667 0.206476 In
0.966667 0.433333 0.206476 In
0.166667 0.500000 0.206476 In
0.366667 0.566667 0.206476 In
0.566667 0.633333 0.206476 In
0.000000 0.000000 0.176979 In
0.200000 0.066667 0.176979 In
0.400000 0.133333 0.176979 In
0.600000 0.200000 0.176979 In
0.800000 0.266667 0.176979 In
0.000000 0.333333 0.176979 In
0.200000 0.400000 0.176979 In
0.400000 0.466667 0.176979 In
0.600000 0.533333 0.176979 In
0.800000 0.600000 0.176979 In
0.000000 0.666667 0.176979 In
0.200000 0.733333 0.176979 In
0.400000 0.800000 0.176979 In
0.600000 0.866667 0.176979 In
0.800000 0.933333 0.176979 In
0.333333 0.333333 0.176979 In
0.533333 0.400000 0.176979 In
0.733333 0.466667 0.176979 In
0.933333 0.533333 0.176979 In
0.133333 0.600000 0.176979 In
0.333333 0.666667 0.176979 In
0.533333 0.733333 0.176979 In
0.733333 0.800000 0.176979 In
0.933333 0.866667 0.176979 In
0.133333 0.933333 0.176979 In
0.333333 1.000000 0.176979 In
0.533333 0.066667 0.176979 In
0.733333 0.133333 0.176979 In
0.933333 0.200000 0.176979 In
0.133333 0.266667 0.176979 In
0.666667 0.666667 0.176979 In
0.866667 0.733333 0.176979 In
0.066667 0.800000 0.176979 In
0.266667 0.866667 0.176979 In
0.466667 0.933333 0.176979 In
0.666667 0.000000 0.176979 In
0.866667 0.066667 0.176979 In
0.066667 0.133333 0.176979 In
0.266667 0.200000 0.176979 In
0.466667 0.266667 0.176979 In
0.666667 0.333333 0.176979 In
0.866667 0.400000 0.176979 In
0.066667 0.466667 0.176979 In
0.266667 0.533333 0.176979 In
0.466667 0.600000 0.176979 In
0.100000 0.033333 0.147483 In
0.300000 0.100000 0.147483 In
0.500000 0.166667 0.147483 In
0.700000 0.233333 0.147483 In
0.900000 0.300000 0.147483 In
0.100000 0.366667 0.147483 In
0.300000 0.433333 0.147483 In
0.500000 0.500000 0.147483 In
0.700000 0.566667 0.147483 In
0.900000 0.633333 0.147483 In
0.100000 0.700000 0.147483 In
0.300000 0.766667 0.147483 In
0.500000 0.833333 0.147483 In
0.700000 0.900000 0.147483 In
0.900000 0.966667 0.147483 In
0.433333 0.366667 0.147483 In
0.633333 0.433333 0.147483 In
0.833333 0.500000 0.147483 In
0.033333 0.566667 0.147483 In
0.233333 0.633333 0.147483 In
0.433333 0.700000 0.147483 In
0.633333 0.766667 0.147483 In
0.833333 0.833333 0.147483 In
0.033333 0.900000 0.147483 In
0.233333 0.966667 0.147483 In
0.433333 0.033333 0.147483 In
0.633333 0.100000 0.147483 In
0.833333 0.166667 0.147483 In
0.033333 0.233333 0.147483 In
0.233333 0.300000 0.147483 In
0.766667 0.700000 0.147483 In
0.966667 0.766667 0.147483 In
0.166667 0.833333 0.147483 In
0.366667 0.900000 0.147483 In
0.566667 0.966667 0.147483 In
0.766667 0.033333 0.147483 In
0.966667 0.100000 0.147483 In
0.166667 0.166667 0.147483 In
0.366667 0.233333 0.147483 In
0.566667 0.300000 0.147483 In
0.766667 0.366667 0.147483 In
0.966667 0.433333 0.147483 In
0.166667 0.500000 0.147483 In
0.366667 0.566667 0.147483 In
0.566667 0.633333 0.147483 In
0.000000 0.000000 0.117986 In
0.200000 0.066667 0.117986 In
0.400000 0.133333 0.117986 In
0.600000 0.200000 0.117986 In
0.800000 0.266667 0.117986 In
0.000000 0.333333 0.117986 In
0.200000 0.400000 0.117986 In
0.400000 0.466667 0.117986 In
0.600000 0.533333 0.117986 In
0.800000 0.600000 0.117986 In
0.000000 0.666667 0.117986 In
0.200000 0.733333 0.117986 In
0.400000 0.800000 0.117986 In
0.600000 0.866667 0.117986 In
0.800000 0.933333 0.117986 In
0.333333 0.333333 0.117986 In
0.533333 0.400000 0.117986 In
0.733333 0.466667 0.117986 In
0.933333 0.533333 0.117986 In
0.133333 0.600000 0.117986 In
0.333333 0.666667 0.117986 In
0.533333 0.733333 0.117986 In
0.733333 0.800000 0.117986 In
0.933333 0.866667 0.117986 In
0.133333 0.933333 0.117986 In
0.333333 1.000000 0.117986 In
0.533333 0.066667 0.117986 In
0.733333 0.133333 0.117986 In
0.933333 0.200000 0.117986 In
0.133333 0.266667 0.117986 In
0.666667 0.666667 0.117986 In
0.866667 0.733333 0.117986 In
0.066667 0.800000 0.117986 In
0.266667 0.866667 0.117986 In
0.466667 0.933333 0.117986 In
0.666667 0.000000 0.117986 In
0.866667 0.066667 0.117986 In
0.066667 0.133333 0.117986 In
0.266667 0.200000 0.117986 In
0.466667 0.266667 0.117986 In
0.666667 0.333333 0.117986 In
0.866667 0.400000 0.117986 In
0.066667 0.466667 0.117986 In
0.266667 0.533333 0.117986 In
0.466667 0.600000 0.117986 In
0.100000 0.033333 0.088490 In
0.300000 0.100000 0.088490 In
0.500000 0.166667 0.088490 In
0.700000 0.233333 0.088490 In
0.900000 0.300000 0.088490 In
0.100000 0.366667 0.088490 In
0.300000 0.433333 0.088490 In
0.500000 0.500000 0.088490 In
0.700000 0.566667 0.088490 In
0.900000 0.633333 0.088490 In
0.100000 0.700000 0.088490 In
0.300000 0.766667 0.088490 In
0.500000 0.833333 0.088490 In
0.700000 0.900000 0.088490 In
0.900000 0.966667 0.088490 In
0.433333 0.366667 0.088490 In
0.633333 0.433333 0.088490 In
0.833333 0.500000 0.088490 In
0.033333 0.566667 0.088490 In
0.233333 0.633333 0.088490 In
0.433333 0.700000 0.088490 In
0.633333 0.766667 0.088490 In
0.833333 0.833333 0.088490 In
0.033333 0.900000 0.088490 In
0.233333 0.966667 0.088490 In
0.433333 0.033333 0.088490 In
0.633333 0.100000 0.088490 In
0.833333 0.166667 0.088490 In
0.033333 0.233333 0.088490 In
0.233333 0.300000 0.088490 In
0.766667 0.700000 0.088490 In
0.966667 0.766667 0.088490 In
0.166667 0.833333 0.088490 In
0.366667 0.900000 0.088490 In
0.566667 0.966667 0.088490 In
0.766667 0.033333 0.088490 In
0.966667 0.100000 0.088490 In
0.166667 0.166667 0.088490 In
0.366667 0.233333 0.088490 In
0.566667 0.300000 0.088490 In
0.766667 0.366667 0.088490 In
0.966667 0.433333 0.088490 In
0.166667 0.500000 0.088490 In
0.366667 0.566667 0.088490 In
0.566667 0.633333 0.088490 In
0.000000 0.000000 0.058993 In
0.200000 0.066667 0.058993 In
0.400000 0.133333 0.058993 In
0.600000 0.200000 0.058993 In
0.800000 0.266667 0.058993 In
0.000000 0.333333 0.058993 In
0.200000 0.400000 0.058993 In
0.400000 0.466667 0.058993 In
0.600000 0.533333 0.058993 In
0.800000 0.600000 0.058993 In
0.000000 0.666667 0.058993 In
0.200000 0.733333 0.058993 In
0.400000 0.800000 0.058993 In
0.600000 0.866667 0.058993 In
0.800000 0.933333 0.058993 In
0.333333 0.333333 0.058993 In
0.533333 0.400000 0.058993 In
0.733333 0.466667 0.058993 In
0.933333 0.533333 0.058993 In
0.133333 0.600000 0.058993 In
0.333333 0.666667 0.058993 In
0.533333 0.733333 0.058993 In
0.733333 0.800000 0.058993 In
0.933333 0.866667 0.058993 In
0.133333 0.933333 0.058993 In
0.333333 1.000000 0.058993 In
0.533333 0.066667 0.058993 In
0.733333 0.133333 0.058993 In
0.933333 0.200000 0.058993 In
0.133333 0.266667 0.058993 In
0.666667 0.666667 0.058993 In
0.866667 0.733333 0.058993 In
0.066667 0.800000 0.058993 In
0.266667 0.866667 0.058993 In
0.466667 0.933333 0.058993 In
0.666667 0.000000 0.058993 In
0.866667 0.066667 0.058993 In
0.066667 0.133333 0.058993 In
0.266667 0.200000 0.058993 In
0.466667 0.266667 0.058993 In
0.666667 0.333333 0.058993 In
0.866667 0.400000 0.058993 In
0.066667 0.466667 0.058993 In
0.266667 0.533333 0.058993 In
0.466667 0.600000 0.058993 In
0.100000 0.033333 0.029497 In
0.300000 0.100000 0.029497 In
0.500000 0.166667 0.029497 In
0.700000 0.233333 0.029497 In
0.900000 0.300000 0.029497 In
0.100000 0.366667 0.029497 In
0.300000 0.433333 0.029497 In
0.500000 0.500000 0.029497 In
0.700000 0.566667 0.029497 In
0.900000 0.633333 0.029497 In
0.100000 0.700000 0.029497 In
0.300000 0.766667 0.029497 In
0.500000 0.833333 0.029497 In
0.700000 0.900000 0.029497 In
0.900000 0.966667 0.029497 In
0.433333 0.366667 0.029497 In
0.633333 0.433333 0.029497 In
0.833333 0.500000 0.029497 In
0.033333 0.566667 0.029497 In
0.233333 0.633333 0.029497 In
0.433333 0.700000 0.029497 In
0.633333 0.766667 0.029497 In
0.833333 0.833333 0.029497 In
0.033333 0.900000 0.029497 In
0.233333 0.966667 0.029497 In
0.433333 0.033333 0.029497 In
0.633333 0.100000 0.029497 In
0.833333 0.166667 0.029497 In
0.033333 0.233333 0.029497 In
0.233333 0.300000 0.029497 In
0.766667 0.700000 0.029497 In
0.966667 0.766667 0.029497 In
0.166667 0.833333 0.029497 In
0.366667 0.900000 0.029497 In
0.566667 0.966667 0.029497 In
0.766667 0.033333 0.029497 In
0.966667 0.100000 0.029497 In
0.166667 0.166667 0.029497 In
0.366667 0.233333 0.029497 In
0.566667 0.300000 0.029497 In
0.766667 0.366667 0.029497 In
0.966667 0.433333 0.029497 In
0.166667 0.500000 0.029497 In
0.366667 0.566667 0.029497 In
0.566667 0.633333 0.029497 In
0.133333 0.100000 0.280217 Sb
0.333333 0.166667 0.280217 Sb
0.533333 0.233333 0.280217 Sb
0.733333 0.300000 0.280217 Sb
0.933333 0.366667 0.280217 Sb
0.133333 0.433333 0.280217 Sb
0.333333 0.500000 0.280217 Sb
0.533333 0.566667 0.280217 Sb
0.733333 0.633333 0.280217 Sb
0.933333 0.700000 0.280217 Sb
0.133333 0.766667 0.280217 Sb
0.333333 0.833333 0.280217 Sb
0.533333 0.900000 0.280217 Sb
0.733333 0.966667 0.280217 Sb
0.933333 0.033333 0.280217 Sb
0.466667 0.433333 0.280217 Sb
0.666667 0.500000 0.280217 Sb
0.866667 0.566667 0.280217 Sb
0.066667 0.633333 0.280217 Sb
0.266667 0.700000 0.280217 Sb
0.466667 0.766667 0.280217 Sb
0.666667 0.833333 0.280217 Sb
0.866667 0.900000 0.280217 Sb
0.066667 0.966667 0.280217 Sb
0.266667 0.033333 0.280217 Sb
0.466667 0.100000 0.280217 Sb
0.666667 0.166667 0.280217 Sb
0.866667 0.233333 0.280217 Sb
0.066667 0.300000 0.280217 Sb
0.266667 0.366667 0.280217 Sb
0.800000 0.766667 0.280217 Sb
0.000000 0.833333 0.280217 Sb
0.200000 0.900000 0.280217 Sb
0.400000 0.966667 0.280217 Sb
0.600000 0.033333 0.280217 Sb
0.800000 0.100000 0.280217 Sb
0.000000 0.166667 0.280217 Sb
0.200000 0.233333 0.280217 Sb
0.400000 0.300000 0.280217 Sb
0.600000 0.366667 0.280217 Sb
0.800000 0.433333 0.280217 Sb
0.000000 0.500000 0.280217 Sb
0.200000 0.566667 0.280217 Sb
0.400000 0.633333 0.280217 Sb
0.600000 0.700000 0.280217 Sb
0.033333 0.066667 0.250721 Sb
0.233333 0.133333 0.250721 Sb
0.433333 0.200000 0.250721 Sb
0.633333 0.266667 0.250721 Sb
0.833333 0.333333 0.250721 Sb
0.033333 0.400000 0.250721 Sb
0.233333 0.466667 0.250721 Sb
0.433333 0.533333 0.250721 Sb
0.633333 0.600000 0.250721 Sb
0.833333 0.666667 0.250721 Sb
0.033333 0.733333 0.250721 Sb
0.233333 0.800000 0.250721 Sb
0.433333 0.866667 0.250721 Sb
0.633333 0.933333 0.250721 Sb
0.833333 1.000000 0.250721 Sb
0.366667 0.400000 0.250721 Sb
0.566667 0.466667 0.250721 Sb
0.766667 0.533333 0.250721 Sb
0.966667 0.600000 0.250721 Sb
0.166667 0.666667 0.250721 Sb
0.366667 0.733333 0.250721 Sb
0.566667 0.800000 0.250721 Sb
0.766667 0.866667 0.250721 Sb
0.966667 0.933333 0.250721 Sb
0.166667 0.000000 0.250721 Sb
0.366667 0.066667 0.250721 Sb
0.566667 0.133333 0.250721 Sb
0.766667 0.200000 0.250721 Sb
0.966667 0.266667 0.250721 Sb
0.166667 0.333333 0.250721 Sb
0.700000 0.733333 0.250721 Sb
0.900000 0.800000 0.250721 Sb
0.100000 0.866667 0.250721 Sb
0.300000 0.933333 0.250721 Sb
0.500000 0.000000 0.250721 Sb
0.700000 0.066667 0.250721 Sb
0.900000 0.133333 0.250721 Sb
0.100000 0.200000 0.250721 Sb
0.300000 0.266667 0.250721 Sb
0.500000 0.333333 0.250721 Sb
0.700000 0.400000 0.250721 Sb
0.900000 0.466667 0.250721 Sb
0.100000 0.533333 0.250721 Sb
0.300000 0.600000 0.250721 Sb
0.500000 0.666667 0.250721 Sb
0.133333 0.100000 0.221224 Sb
0.333333 0.166667 0.221224 Sb
0.533333 0.233333 0.221224 Sb
0.733333 0.300000 0.221224 Sb
0.933333 0.366667 0.221224 Sb
0.133333 0.433333 0.221224 Sb
0.333333 0.500000 0.221224 Sb
0.533333 0.566667 0.221224 Sb
0.733333 0.633333 0.221224 Sb
0.933333 0.700000 0.221224 Sb
0.133333 0.766667 0.221224 Sb
0.333333 0.833333 0.221224 Sb
0.533333 0.900000 0.221224 Sb
0.733333 0.966667 0.221224 Sb
0.933333 0.033333 0.221224 Sb
0.466667 0.433333 0.221224 Sb
0.666667 0.500000 0.221224 Sb
0.866667 0.566667 0.221224 Sb
0.066667 0.633333 0.221224 Sb
0.266667 0.700000 0.221224 Sb
0.466667 0.766667 0.221224 Sb
0.666667 0.833333 0.221224 Sb