Al144 In108 As112 H4
1.0
-4.283932 -7.419988 0.000000
-4.283932 7.419988 0.000000
0.000000 0.000000 -214.242634
Al In As H
148 104 112 4
direct
0.000000 0.666667 0.626592 Al
0.000000 0.333333 0.626592 Al
0.000000 0.000000 0.626592 Al
0.666667 0.333333 0.626592 Al
0.666667 1.000000 0.626592 Al
0.666667 0.666667 0.626592 Al
0.333333 1.000000 0.626592 Al
0.333333 0.666667 0.626592 Al
0.333333 0.333333 0.626592 Al
0.222222 0.444444 0.615707 Al
0.222222 0.111111 0.615707 Al
0.222222 0.777778 0.615707 Al
0.888889 0.111111 0.615707 Al
0.888889 0.777778 0.615707 Al
0.888889 0.444444 0.615707 Al
0.555556 0.777778 0.615707 Al
0.555556 0.444444 0.615707 Al
0.555556 0.111111 0.615707 Al
0.444444 0.888889 0.604823 Al
0.444444 0.555556 0.604823 Al
0.444444 0.222222 0.604823 Al
0.111111 0.555556 0.604823 Al
0.111111 0.222222 0.604823 Al
0.111111 0.888889 0.604823 Al
0.777778 0.222222 0.604823 Al
0.777778 0.888889 0.604823 Al
0.777778 0.555556 0.604823 Al
0.000000 0.666667 0.593939 Al
0.000000 0.333333 0.593939 Al
0.000000 0.000000 0.593939 Al
0.666667 0.333333 0.593939 Al
0.666667 1.000000 0.593939 Al
0.666667 0.666667 0.593939 Al
0.333333 1.000000 0.593939 Al
0.333333 0.666667 0.593939 Al
0.333333 0.333333 0.593939 Al
0.222222 0.444444 0.583054 Al
0.222222 0.111111 0.583054 Al
0.222222 0.777778 0.583054 Al
0.888889 0.111111 0.583054 Al
0.888889 0.777778 0.583054 Al
0.888889 0.444444 0.583054 Al
0.555556 0.777778 0.583054 Al
0.555556 0.444444 0.583054 Al
0.555556 0.111111 0.583054 Al
0.444444 0.888889 0.572170 Al
0.444444 0.555556 0.572170 Al
0.444444 0.222222 0.572170 Al
0.111111 0.555556 0.572170 Al
0.111111 0.222222 0.572170 Al
0.111111 0.888889 0.572170 Al
0.777778 0.222222 0.572170 Al
0.777778 0.888889 0.572170 Al
0.777778 0.555556 0.572170 Al
1.000000 0.666667 0.561286 Al
1.000000 0.333333 0.561286 Al
0.000000 0.000000 0.561286 Al
0.666667 0.333333 0.561286 Al
0.666667 0.000000 0.561286 Al
0.666667 0.666667 0.561286 Al
0.333333 0.000000 0.561286 Al
0.333333 0.666667 0.561286 Al
0.333333 0.333333 0.561286 Al
0.222222 0.444444 0.550402 Al
0.222222 0.111111 0.550402 Al
0.222222 0.777778 0.550402 Al
0.888889 0.111111 0.550402 Al
0.888889 0.777778 0.550402 Al
0.888889 0.444444 0.550402 Al
0.555556 0.777778 0.550402 Al
0.555556 0.444444 0.550402 Al
0.555556 0.111111 0.550402 Al
0.444444 0.888889 0.539517 Al
0.444444 0.555556 0.539517 Al
0.444444 0.222222 0.539517 Al
0.111111 0.555556 0.539517 Al
0.111111 0.222222 0.539517 Al
0.111111 0.888889 0.539517 Al
0.777778 0.222222 0.539517 Al
0.777778 0.888889 0.539517 Al
0.777778 0.555556 0.539517 Al
0.000000 0.666667 0.528633 Al
0.000000 0.333333 0.528633 Al
0.000000 0.000000 0.528633 Al
0.666667 0.333333 0.528633 Al
0.666667 0.000000 0.528633 Al
0.666667 0.666667 0.528633 Al
0.333333 0.000000 0.528633 Al
0.333333 0.666667 0.528633 Al
0.333333 0.333333 0.528633 Al
0.222222 0.444444 0.517749 Al
0.222222 0.111111 0.517749 Al
0.222222 0.777778 0.517749 Al
0.888889 0.111111 0.517749 Al
0.888889 0.777778 0.517749 Al
0.888889 0.444444 0.517749 Al
0.555556 0.777778 0.517749 Al
0.555556 0.444444 0.517749 Al
0.555556 0.111111 0.517749 Al
0.444444 0.888889 0.506864 Al
0.444444 0.555556 0.506864 Al
0.444444 0.222222 0.506864 Al
0.111111 0.555556 0.506864 Al
0.111111 0.222222 0.506864 Al
0.111111 0.888889 0.506864 Al
0.777778 0.222222 0.506864 Al
0.777778 0.888889 0.506864 Al
0.777778 0.555556 0.506864 Al
0.666667 0.333333 0.495980 Al
0.666667 1.000000 0.495980 Al
0.666667 0.666667 0.495980 Al
0.333333 1.000000 0.495980 Al
0.333333 0.666667 0.495980 Al
0.333333 0.333333 0.495980 Al
0.000000 0.666667 0.495980 Al
0.000000 0.333333 0.495980 Al
0.000000 0.000000 0.495980 Al
0.2235748799685145  0.4471487599370316  0.4845837350727005 Al
0.2263708395081235  0.1131859197540605  0.4843347486965038 Al
0.2235748799685145  0.7764251200314857  0.4845837350727005 Al
0.8868140802459396  0.1131859197540605  0.4843347486965038 Al
0.8868140802459396  0.7736291604918767  0.4843347486965038 Al
0.8861117984209532  0.4430553992104779  0.483908594061953  Al
0.5528512400629685  0.7764251200314857  0.4845837350727005 Al
0.5569446007895219  0.4430553992104779  0.483908594061953  Al
0.5569446007895219  0.1138882015790467  0.483908594061953  Al
0.4504259642007540  0.9008529284015127  0.4728223106800337 Al
0.4504259642007540  0.5495740357992461  0.4728223106800337 Al
0.4478590512070291  0.2239290256035158  0.4712058600622756 Al
0.0991470715984874  0.5495740357992461  0.4728223106800337 Al
0.1156136384187204  0.2312272768374337  0.4734966427501487 Al
0.1156136384187204  0.8843863615812794  0.4734966427501487 Al
0.7760709743964843  0.2239290256035158  0.4712058600622756 Al
0.7687727231625664  0.8843863615812794  0.4734966427501487 Al
0.7760709743964843  0.5521409487929709  0.4712058600622756 Al
0.0088068615106556  0.6835804217849295  0.460665101215797  Al
0.0088068615106556  0.3252274397257307  0.460665101215797  Al
0.0000000000000000  0.0000000000000000  0.4635632772882268 Al
0.6666669999999968  0.3333330000000032  0.4557019944147405 Al
0.6747725602742691  0.9911931384893442  0.460665101215797  Al
0.6747725602742691  0.6835804217849295  0.460665101215797  Al
0.3164195782150706  0.9911931384893442  0.460665101215797  Al
0.3333330000000032  0.6666669999999968  0.4628116133273956 Al
0.3164195782150706  0.3252274397257308  0.460665101215797  Al
0.0000000000000000  0.0000000000000000  0.4409558307306034 Al
0.9963335023486818  0.4981667511743409  0.4404352940843483 Al
0.5018332488256595  0.4981667511743409  0.4404352940843483 Al
0.5018332488256595  0.0036664976513184  0.4404352940843483 Al
0.3333330000000032  0.6666669999999968  0.424889007377849  In
0.3324030871356539  0.1662020435678257  0.4247738140910642 In
0.8337979564321745  0.1662020435678257  0.4247738140910642 In
0.8337979564321745  0.6675969128643459  0.4247738140910642 In
0.666667 0.333333 0.408161 In
0.666667 0.833333 0.408161 In
0.166667 0.833333 0.408161 In
0.166667 0.333333 0.408161 In
0.000000 0.000000 0.391834 In
1.000000 0.500000 0.391834 In
0.500000 0.500000 0.391834 In
0.500000 0.000000 0.391834 In
0.333333 0.666667 0.375508 In
0.333333 0.166667 0.375508 In
0.833333 0.166667 0.375508 In
0.833333 0.666667 0.375508 In
0.666667 0.333333 0.359182 In
0.666667 0.833333 0.359182 In
0.166667 0.833333 0.359182 In
0.166667 0.333333 0.359182 In
0.000000 0.000000 0.342855 In
1.000000 0.500000 0.342855 In
0.500000 0.500000 0.342855 In
0.500000 0.000000 0.342855 In
0.333333 0.666667 0.326529 In
0.333333 0.166667 0.326529 In
0.833333 0.166667 0.326529 In
0.833333 0.666667 0.326529 In
0.666667 0.333333 0.310202 In
0.666667 0.833333 0.310202 In
0.166667 0.833333 0.310202 In
0.166667 0.333333 0.310202 In
0.000000 0.000000 0.293876 In
1.000000 0.500000 0.293876 In
0.500000 0.500000 0.293876 In
0.500000 0.000000 0.293876 In
0.333333 0.666667 0.277549 In
0.333333 0.166667 0.277549 In
0.833333 0.166667 0.277549 In
0.833333 0.666667 0.277549 In
0.666667 0.333333 0.261223 In
0.666667 0.833333 0.261223 In
0.166667 0.833333 0.261223 In
0.166667 0.333333 0.261223 In
0.000000 0.000000 0.244897 In
1.000000 0.500000 0.244897 In
0.500000 0.500000 0.244897 In
0.500000 0.000000 0.244897 In
0.333333 0.666667 0.228570 In
0.333333 0.166667 0.228570 In
0.833333 0.166667 0.228570 In
0.833333 0.666667 0.228570 In
0.666667 0.333333 0.212244 In
0.666667 0.833333 0.212244 In
0.166667 0.833333 0.212244 In
0.166667 0.333333 0.212244 In
0.000000 0.000000 0.195917 In
0.000000 0.500000 0.195917 In
0.500000 0.500000 0.195917 In
0.500000 1.000000 0.195917 In
0.333333 0.666667 0.179591 In
0.333333 0.166667 0.179591 In
0.833333 0.166667 0.179591 In
0.833333 0.666667 0.179591 In
0.666667 0.333333 0.163264 In
0.666667 0.833333 0.163264 In
0.166667 0.833333 0.163264 In
0.166667 0.333333 0.163264 In
0.000000 0.000000 0.146938 In
1.000000 0.500000 0.146938 In
0.500000 0.500000 0.146938 In
0.500000 0.000000 0.146938 In
0.333333 0.166667 0.130611 In
0.833333 0.166667 0.130611 In
0.833333 0.666667 0.130611 In
0.333333 0.666667 0.130611 In
0.666667 0.333333 0.114285 In
0.666667 0.833333 0.114285 In
0.166667 0.833333 0.114285 In
0.166667 0.333333 0.114285 In
0.000000 0.000000 0.097959 In
1.000000 0.500000 0.097959 In
0.500000 0.500000 0.097959 In
0.500000 0.000000 0.097959 In
0.333333 0.666667 0.081632 In
0.333333 0.166667 0.081632 In
0.833333 0.166667 0.081632 In
0.833333 0.666667 0.081632 In
0.666667 0.333333 0.065306 In
0.666667 0.833333 0.065306 In
0.166667 0.833333 0.065306 In
0.166667 0.333333 0.065306 In
0.000000 0.000000 0.048979 In
0.000000 0.500000 0.048979 In
0.500000 0.500000 0.048979 In
0.500000 1.000000 0.048979 In
0.333333 0.666667 0.032653 In
0.333333 0.166667 0.032653 In
0.833333 0.166667 0.032653 In
0.833333 0.666667 0.032653 In
0.666667 0.333333 0.016326 In
0.666667 0.833333 0.016326 In
0.166667 0.833333 0.016326 In
0.166667 0.333333 0.016326 In
0.0000000000000000  0.0000000000000000  0.4523891980871478 As
0.9740279258369621  0.4870134629184787  0.4518863913017345 As
0.5129865370815211  0.4870134629184787  0.4518863913017345 As
0.5129865370815211  0.0259720741630379  0.4518863913017345 As
0.3333330000000032  0.6666669999999968  0.4375099618142176 As
0.3319092629437904  0.1659551314718975  0.4373399688734203 As
0.8340448685281026  0.1659551314718975  0.4373399688734203 As
0.8340448685281026  0.6680907370562098  0.4373399688734203 As
0.6666669999999968  0.3333330000000032  0.4205877768932331 As
0.6661427610889882  0.8330713805444905  0.4205534902288679 As
0.1669286194555095  0.8330713805444905  0.4205534902288679 As
0.1669286194555095  0.3338572389110119  0.4205534902288679 As
0.000000 0.000000 0.404079 As
1.000000 0.500000 0.404079 As
0.500000 0.500000 0.404079 As
0.500000 0.000000 0.404079 As
0.333333 0.666667 0.387753 As
0.333333 0.166667 0.387753 As
0.833333 0.166667 0.387753 As
0.833333 0.666667 0.387753 As
0.666667 0.333333 0.371426 As
0.666667 0.833333 0.371426 As
0.166667 0.833333 0.371426 As
0.166667 0.333333 0.371426 As
0.000000 0.000000 0.355100 As
1.000000 0.500000 0.355100 As
0.500000 0.500000 0.355100 As
0.500000 0.000000 0.355100 As
0.333333 0.666667 0.338774 As
0.333333 0.166667 0.338774 As
0.833333 0.166667 0.338774 As
0.833333 0.666667 0.338774 As
0.666667 0.333333 0.322447 As
0.666667 0.833333 0.322447 As
0.166667 0.833333 0.322447 As
0.166667 0.333333 0.322447 As
0.000000 0.000000 0.306121 As
1.000000 0.500000 0.306121 As
0.500000 0.500000 0.306121 As
0.500000 0.000000 0.306121 As
0.333333 0.666667 0.289794 As
0.333333 0.166667 0.289794 As
0.833333 0.166667 0.289794 As
0.833333 0.666667 0.289794 As
0.666667 0.333333 0.273468 As
0.666667 0.833333 0.273468 As
0.166667 0.833333 0.273468 As
0.166667 0.333333 0.273468 As
0.000000 0.000000 0.257141 As
1.000000 0.500000 0.257141 As
0.500000 0.500000 0.257141 As
0.500000 0.000000 0.257141 As
0.333333 0.666667 0.240815 As
0.333333 0.166667 0.240815 As
0.833333 0.166667 0.240815 As
0.833333 0.666667 0.240815 As
0.666667 0.333333 0.224489 As
0.666667 0.833333 0.224489 As
0.166667 0.833333 0.224489 As
0.166667 0.333333 0.224489 As
0.000000 0.000000 0.208162 As
1.000000 0.500000 0.208162 As
0.500000 0.500000 0.208162 As
0.500000 0.000000 0.208162 As
0.333333 0.666667 0.191836 As
0.333333 0.166667 0.191836 As
0.833333 0.166667 0.191836 As
0.833333 0.666667 0.191836 As
0.666667 0.333333 0.175509 As
0.666667 0.833333 0.175509 As
0.166667 0.833333 0.175509 As
0.166667 0.333333 0.175509 As
0.000000 0.000000 0.159183 As
1.000000 0.500000 0.159183 As
0.500000 0.500000 0.159183 As
0.500000 0.000000 0.159183 As
0.333333 0.666667 0.142856 As
0.333333 0.166667 0.142856 As
0.833333 0.166667 0.142856 As
0.833333 0.666667 0.142856 As
0.666667 0.333333 0.126530 As
0.666667 0.833333 0.126530 As
0.166667 0.833333 0.126530 As
0.166667 0.333333 0.126530 As
0.000000 0.000000 0.110203 As
1.000000 0.500000 0.110203 As
0.500000 0.500000 0.110203 As
0.500000 0.000000 0.110203 As
0.333333 0.666667 0.093877 As
0.333333 0.166667 0.093877 As
0.833333 0.166667 0.093877 As
0.833333 0.666667 0.093877 As
0.666667 0.333333 0.077551 As
0.666667 0.833333 0.077551 As
0.166667 0.833333 0.077551 As
0.166667 0.333333 0.077551 As
0.000000 0.000000 0.061224 As
1.000000 0.500000 0.061224 As
0.500000 0.500000 0.061224 As
0.500000 0.000000 0.061224 As
0.333333 0.666667 0.044898 As
0.333333 0.166667 0.044898 As
0.833333 0.166667 0.044898 As
0.833333 0.666667 0.044898 As
0.666667 0.333333 0.028571 As
0.666667 0.833333 0.028571 As
0.166667 0.833333 0.028571 As
0.166667 0.333333 0.028571 As
0.000000 0.000000 0.012245 As
1.000000 0.500000 0.012245 As
0.500000 0.500000 0.012245 As
0.500000 0.000000 0.012245 As
0.000000 0.000000 0.005160 H
1.000000 0.500000 0.005160 H
0.500000 0.500000 0.005160 H
0.500000 0.000000 0.005160 H
