In7 As7
1.0
2.141968 -3.709997 0.000000
2.141968 3.709997 0.000000
0.000000 0.000000 81.861368
In As
7 7
direct
0.000000 0.000000 0.622845 In
0.333333 0.666667 0.580116 In
0.666667 0.333333 0.537387 In
0.000000 0.000000 0.494659 In
0.333333 0.666667 0.451930 In
0.666667 0.333333 0.409202 In
0.000000 0.000000 0.366473 In
0.666667 0.333333 0.633527 As
0.000000 0.000000 0.590798 As
0.333333 0.666667 0.548070 As
0.666667 0.333333 0.505341 As
0.000000 0.000000 0.462613 As
0.333333 0.666667 0.419884 As
0.666667 0.333333 0.377155 As
