In3 As3
1.0
2.141968 -3.709997 0.000000
2.141968 3.709997 0.000000
0.000000 0.000000 67.870092
In As
3 3
direct
0.000000 0.000000 0.545095 In
0.333333 0.666667 0.493558 In
0.666667 0.333333 0.442021 In
0.666667 0.333333 0.557979 As
0.000000 0.000000 0.506442 As
0.333333 0.666667 0.454905 As
