In1 As1
1.0
2.141968 -3.709997 0.000000
2.141968 3.709997 0.000000
0.000000 0.000000 60.874455
In As
1 1
direct
0.000000 0.000000 0.492818 In
0.666667 0.333333 0.507182 As
