In5 As5
1.0
2.141968 -3.709997 0.000000
2.141968 3.709997 0.000000
0.000000 0.000000 74.865730
In As
5 5
direct
0.000000 0.000000 0.587602 In
0.333333 0.666667 0.540881 In
0.666667 0.333333 0.494160 In
0.000000 0.000000 0.447439 In
0.333333 0.666667 0.400717 In
0.666667 0.333333 0.599283 As
0.000000 0.000000 0.552561 As
0.333333 0.666667 0.505840 As
0.666667 0.333333 0.459119 As
0.000000 0.000000 0.412398 As
