In4 As4
1.0
2.141968 -3.709997 0.000000
2.141968 3.709997 0.000000
0.000000 0.000000 71.367911
In As
4 4
direct
0.000000 0.000000 0.567390 In
0.333333 0.666667 0.518379 In
0.666667 0.333333 0.469368 In
0.000000 0.000000 0.420357 In
0.666667 0.333333 0.579643 As
0.000000 0.000000 0.530632 As
0.333333 0.666667 0.481621 As
0.666667 0.333333 0.432610 As
