In9 As9
1.0
2.141968 -3.709997 0.000000
2.141968 3.709997 0.000000
0.000000 0.000000 88.857006
In As
9 9
direct
0.000000 0.000000 0.652538 In
0.333333 0.666667 0.613173 In
0.666667 0.333333 0.573809 In
0.000000 0.000000 0.534444 In
0.333333 0.666667 0.495079 In
0.666667 0.333333 0.455715 In
0.000000 0.000000 0.416350 In
0.333333 0.666667 0.376986 In
0.666667 0.333333 0.337621 In
0.666667 0.333333 0.662379 As
0.000000 0.000000 0.623014 As
0.333333 0.666667 0.583650 As
0.666667 0.333333 0.544285 As
0.000000 0.000000 0.504921 As
0.333333 0.666667 0.465556 As
0.666667 0.333333 0.426191 As
0.000000 0.000000 0.386827 As
0.333333 0.666667 0.347462 As
