In4 Ni15 As5 H1
1.0
-2.141968 -3.709997 0.000000
-2.141968 3.709997 0.000000
0.000000 0.000000 -76.943731
In Ni As H
4 15 5 1
direct
0.333333 0.666667 0.181838 In
0.000000 0.000000 0.136378 In
0.666667 0.333333 0.090919 In
0.333333 0.666667 0.045459 In
0.333333 0.333333 0.350174 Ni
0.666667 1.000000 0.350174 Ni
0.000000 0.666667 0.350174 Ni
0.333333 0.666667 0.323762 Ni
0.666667 0.333333 0.323762 Ni
0.000000 0.000000 0.323762 Ni
0.666667 0.666667 0.297350 Ni
0.000000 0.333333 0.297350 Ni
0.333333 1.000000 0.297350 Ni
0.333333 0.333333 0.270937 Ni
0.666667 1.000000 0.270937 Ni
0.000000 0.666667 0.270937 Ni
0.333333 0.666667 0.244525 Ni
0.666667 0.333333 0.244525 Ni
0.000000 0.000000 0.244525 Ni
0.333333 0.666667 0.215932 As
0.000000 0.000000 0.170473 As
0.666667 0.333333 0.125013 As
0.333333 0.666667 0.079554 As
0.000000 0.000000 0.034095 As
0.000000 0.000000 0.016549 H
