In59 Ni60 As59 H2
1.0
4.283936 0.000000 0.000000
0.000000 6.058400 0.000000
0.000000 0.000000 202.221755
In Ni As H
59 60 59 2
direct
0.500000 0.500000 0.624938 In
1.000000 0.000000 0.614346 In
0.500000 0.500000 0.603754 In
1.000000 0.000000 0.593162 In
0.500000 0.500000 0.582570 In
1.000000 0.000000 0.571977 In
0.500000 0.500000 0.561385 In
1.000000 0.000000 0.550793 In
0.500000 0.500000 0.540201 In
1.000000 0.000000 0.529609 In
0.500000 0.500000 0.519016 In
1.000000 0.000000 0.508424 In
0.500000 0.500000 0.497832 In
1.000000 0.000000 0.487240 In
0.500000 0.500000 0.476648 In
1.000000 0.000000 0.466056 In
0.500000 0.500000 0.455463 In
1.000000 0.000000 0.444871 In
0.500000 0.500000 0.434279 In
1.000000 0.000000 0.423687 In
0.500000 0.500000 0.413095 In
1.000000 0.000000 0.402503 In
0.500000 0.500000 0.391910 In
1.000000 0.000000 0.381318 In
0.500000 0.500000 0.370726 In
1.000000 0.000000 0.360134 In
0.500000 0.500000 0.349542 In
1.000000 0.000000 0.338950 In
0.500000 0.500000 0.328357 In
1.000000 0.000000 0.317765 In
0.500000 0.500000 0.307173 In
1.000000 0.000000 0.296581 In
0.500000 0.500000 0.285989 In
1.000000 0.000000 0.275397 In
0.500000 0.500000 0.264804 In
1.000000 0.000000 0.254212 In
0.500000 0.500000 0.243620 In
1.000000 0.000000 0.233028 In
0.500000 0.500000 0.222436 In
1.000000 0.000000 0.211843 In
0.500000 0.500000 0.201251 In
1.000000 0.000000 0.190659 In
0.500000 0.500000 0.180067 In
1.000000 0.000000 0.169475 In
0.500000 0.500000 0.158883 In
1.000000 0.000000 0.148290 In
0.500000 0.500000 0.137698 In
1.000000 0.000000 0.127106 In
0.500000 0.500000 0.116514 In
1.000000 0.000000 0.105922 In
0.500000 0.500000 0.095330 In
1.000000 0.000000 0.084737 In
0.500000 0.500000 0.074145 In
1.000000 0.000000 0.063553 In
0.500000 0.500000 0.052961 In
1.000000 0.000000 0.042369 In
0.500000 0.500000 0.031777 In
1.000000 0.000000 0.021184 In
0.500000 0.500000 0.010592 In
0.833333 0.333333 0.752747 Ni
0.500000 0.000000 0.752747 Ni
0.166667 0.666667 0.752747 Ni
0.333333 0.333333 0.746593 Ni
0.000000 0.000000 0.746593 Ni
0.666667 0.666667 0.746593 Ni
0.166667 0.666667 0.740438 Ni
0.833333 0.333333 0.740438 Ni
0.500000 0.000000 0.740438 Ni
0.000000 0.000000 0.734284 Ni
0.666667 0.666667 0.734284 Ni
0.333333 0.333333 0.734284 Ni
0.833333 0.333333 0.728130 Ni
0.500000 0.000000 0.728130 Ni
0.166667 0.666667 0.728130 Ni
0.333333 0.333333 0.721976 Ni
0.000000 0.000000 0.721976 Ni
0.666667 0.666667 0.721976 Ni
0.166667 0.666667 0.715822 Ni
0.833333 0.333333 0.715822 Ni
0.500000 0.000000 0.715822 Ni
0.000000 0.000000 0.709667 Ni
0.666667 0.666667 0.709667 Ni
0.333333 0.333333 0.709667 Ni
0.833333 0.333333 0.703513 Ni
0.500000 0.000000 0.703513 Ni
0.166667 0.666667 0.703513 Ni
0.333333 0.333333 0.697359 Ni
0.000000 0.000000 0.697359 Ni
0.666667 0.666667 0.697359 Ni
0.166667 0.666667 0.691205 Ni
0.833333 0.333333 0.691205 Ni
0.500000 0.000000 0.691205 Ni
0.000000 0.000000 0.685051 Ni
0.666667 0.666667 0.685051 Ni
0.333333 0.333333 0.685051 Ni
0.833333 0.333333 0.678897 Ni
0.500000 0.000000 0.678897 Ni
0.166667 0.666667 0.678897 Ni
0.333333 0.333333 0.672742 Ni
0.000000 0.000000 0.672742 Ni
0.666667 0.666667 0.672742 Ni
0.166667 0.666667 0.666588 Ni
0.833333 0.333333 0.666588 Ni
0.500000 0.000000 0.666588 Ni
0.000000 0.000000 0.660434 Ni
0.666667 0.666667 0.660434 Ni
0.333333 0.333333 0.660434 Ni
0.833333 0.333333 0.654280 Ni
0.500000 0.000000 0.654280 Ni
0.166667 0.666667 0.654280 Ni
0.333333 0.333333 0.648126 Ni
0.000000 0.000000 0.648126 Ni
0.666667 0.666667 0.648126 Ni
0.166667 0.666667 0.641972 Ni
0.833333 0.333333 0.641972 Ni
0.500000 0.000000 0.641972 Ni
0.000000 0.000000 0.635817 Ni
0.666667 0.666667 0.635817 Ni
0.333333 0.333333 0.635817 Ni
1.000000 0.750000 0.624938 As
0.500000 0.250000 0.614346 As
1.000000 0.750000 0.603754 As
0.500000 0.250000 0.593162 As
1.000000 0.750000 0.582570 As
0.500000 0.250000 0.571977 As
1.000000 0.750000 0.561385 As
0.500000 0.250000 0.550793 As
1.000000 0.750000 0.540201 As
0.500000 0.250000 0.529609 As
1.000000 0.750000 0.519016 As
0.500000 0.250000 0.508424 As
1.000000 0.750000 0.497832 As
0.500000 0.250000 0.487240 As
1.000000 0.750000 0.476648 As
0.500000 0.250000 0.466056 As
1.000000 0.750000 0.455463 As
0.500000 0.250000 0.444871 As
1.000000 0.750000 0.434279 As
0.500000 0.250000 0.423687 As
1.000000 0.750000 0.413095 As
0.500000 0.250000 0.402503 As
1.000000 0.750000 0.391910 As
0.500000 0.250000 0.381318 As
1.000000 0.750000 0.370726 As
0.500000 0.250000 0.360134 As
1.000000 0.750000 0.349542 As
0.500000 0.250000 0.338950 As
1.000000 0.750000 0.328357 As
0.500000 0.250000 0.317765 As
1.000000 0.750000 0.307173 As
0.500000 0.250000 0.296581 As
1.000000 0.750000 0.285989 As
0.500000 0.250000 0.275397 As
1.000000 0.750000 0.264804 As
0.500000 0.250000 0.254212 As
1.000000 0.750000 0.243620 As
0.500000 0.250000 0.233028 As
1.000000 0.750000 0.222436 As
0.500000 0.250000 0.211843 As
1.000000 0.750000 0.201251 As
0.500000 0.250000 0.190659 As
1.000000 0.750000 0.180067 As
0.500000 0.250000 0.169475 As
1.000000 0.750000 0.158883 As
0.500000 0.250000 0.148290 As
1.000000 0.750000 0.137698 As
0.500000 0.250000 0.127106 As
1.000000 0.750000 0.116514 As
0.500000 0.250000 0.105922 As
1.000000 0.750000 0.095330 As
0.500000 0.250000 0.084737 As
1.000000 0.750000 0.074145 As
0.500000 0.250000 0.063553 As
1.000000 0.750000 0.052961 As
0.500000 0.250000 0.042369 As
1.000000 0.750000 0.031777 As
0.500000 0.250000 0.021184 As
1.000000 0.750000 0.010592 As
1.000000 0.878652 0.005141 H
0.500000 0.351622 0.004306 H
