Al63 In48 As52 H4                       
   1.00000000000000     
    -4.2839320000000001   -7.4199880000000000    0.0000000000000000
    -4.2839320000000001    7.4199880000000000    0.0000000000000000
     0.0000000000000000    0.0000000000000000 -140.7884549999999990
   Al   In   As   H 
    67    44    52     4
Selective dynamics
Direct
  0.0000000000000000  0.6666669999999968  0.6431350000000009   F   F   F
  0.0000000000000000  0.3333330000000032  0.6431350000000009   F   F   F
  0.0000000000000000  0.0000000000000000  0.6431350000000009   F   F   F
  0.6666669999999968  0.3333330000000032  0.6431350000000009   F   F   F
  0.6666669999999968  0.0000000000000000  0.6431350000000009   F   F   F
  0.6666669999999968  0.6666669999999968  0.6431350000000009   F   F   F
  0.3333330000000032  0.0000000000000000  0.6431350000000009   F   F   F
  0.3333330000000032  0.6666669999999968  0.6431350000000009   F   F   F
  0.3333330000000032  0.3333330000000032  0.6431350000000009   F   F   F
  0.2222220000000021  0.4444439999999972  0.6265720000000030   F   F   F
  0.2222220000000021  0.1111110000000011  0.6265720000000030   F   F   F
  0.2222220000000021  0.7777779999999979  0.6265720000000030   F   F   F
  0.8888889999999989  0.1111110000000011  0.6265720000000030   F   F   F
  0.8888889999999989  0.7777779999999979  0.6265720000000030   F   F   F
  0.8888889999999989  0.4444439999999972  0.6265720000000030   F   F   F
  0.5555560000000028  0.7777779999999979  0.6265720000000030   F   F   F
  0.5555560000000028  0.4444439999999972  0.6265720000000030   F   F   F
  0.5555560000000028  0.1111110000000011  0.6265720000000030   F   F   F
  0.4444439999999972  0.8888889999999989  0.6100089999999980   F   F   F
  0.4444439999999972  0.5555560000000028  0.6100089999999980   F   F   F
  0.4444439999999972  0.2222220000000021  0.6100089999999980   F   F   F
  0.1111110000000011  0.5555560000000028  0.6100089999999980   F   F   F
  0.1111110000000011  0.2222220000000021  0.6100089999999980   F   F   F
  0.1111110000000011  0.8888889999999989  0.6100089999999980   F   F   F
  0.7777779999999979  0.2222220000000021  0.6100089999999980   F   F   F
  0.7777779999999979  0.8888889999999989  0.6100089999999980   F   F   F
  0.7777779999999979  0.5555560000000028  0.6100089999999980   F   F   F
  0.6666669999999968  0.3333330000000032  0.5934460000000001   F   F   F
  0.6666669999999968  0.0000000000000000  0.5934460000000001   F   F   F
  0.6666669999999968  0.6666669999999968  0.5934460000000001   F   F   F
  0.3333330000000032  0.0000000000000000  0.5934460000000001   F   F   F
  0.3333330000000032  0.6666669999999968  0.5934460000000001   F   F   F
  0.3333330000000032  0.3333330000000032  0.5934460000000001   F   F   F
  0.0000000000000000  0.6666669999999968  0.5934460000000001   F   F   F
  0.0000000000000000  0.3333330000000032  0.5934460000000001   F   F   F
  0.0000000000000000  0.0000000000000000  0.5934460000000001   F   F   F
  0.2235748799685145  0.4471487599370316  0.5761039117173603   T   T   T
  0.2263708395081235  0.1131859197540605  0.5757250205855095   T   T   T
  0.2235748799685145  0.7764251200314857  0.5761039117173603   T   T   T
  0.8868140802459396  0.1131859197540605  0.5757250205855095   T   T   T
  0.8868140802459396  0.7736291604918767  0.5757250205855095   T   T   T
  0.8861117984209532  0.4430553992104779  0.5750765264217126   T   T   T
  0.5528512400629685  0.7764251200314857  0.5761039117173603   T   T   T
  0.5569446007895219  0.4430553992104779  0.5750765264217126   T   T   T
  0.5569446007895219  0.1138882015790467  0.5750765264217126   T   T   T
  0.4504259642007540  0.9008529284015127  0.5582061477176291   T   T   T
  0.4504259642007540  0.5495740357992461  0.5582061477176291   T   T   T
  0.4478590512070291  0.2239290256035158  0.5557463392192731   T   T   T
  0.0991470715984874  0.5495740357992461  0.5582061477176291   T   T   T
  0.1156136384187204  0.2312272768374337  0.5592323020204951   T   T   T
  0.1156136384187204  0.8843863615812794  0.5592323020204951   T   T   T
  0.7760709743964843  0.2239290256035158  0.5557463392192731   T   T   T
  0.7687727231625664  0.8843863615812794  0.5592323020204951   T   T   T
  0.7760709743964843  0.5521409487929709  0.5557463392192731   T   T   T
  0.0088068615106556  0.6835804217849295  0.5397061039625655   T   T   T
  0.0088068615106556  0.3252274397257307  0.5397061039625655   T   T   T
 -0.0000000000000000  0.0000000000000000  0.5441163581666700   T   T   T
  0.6666669999999968  0.3333330000000032  0.5321535736511727   T   T   T
  0.6747725602742691  0.9911931384893442  0.5397061039625655   T   T   T
  0.6747725602742691  0.6835804217849295  0.5397061039625655   T   T   T
  0.3164195782150706  0.9911931384893442  0.5397061039625655   T   T   T
  0.3333330000000032  0.6666669999999968  0.5429725252660864   T   T   T
  0.3164195782150706  0.3252274397257308  0.5397061039625655   T   T   T
 -0.0000000000000000  0.0000000000000000  0.5097138292198224   T   T   T
  0.9963335023486818  0.4981667511743409  0.5089217107028088   T   T   T
  0.5018332488256595  0.4981667511743409  0.5089217107028088   T   T   T
  0.5018332488256595  0.0036664976513184  0.5089217107028088   T   T   T
  0.3333330000000032  0.6666669999999968  0.4852645841400617   T   T   T
  0.3324030871356539  0.1662020435678257  0.4850892905538094   T   T   T
  0.8337979564321745  0.1662020435678257  0.4850892905538094   T   T   T
  0.8337979564321745  0.6675969128643459  0.4850892905538094   T   T   T
  0.6666669999999968  0.3333330000000032  0.4598089999999999   F   F   F
  0.6666669999999968  0.8333330000000032  0.4598089999999999   F   F   F
  0.1666669999999968  0.8333330000000032  0.4598089999999999   F   F   F
  0.1666669999999968  0.3333330000000032  0.4598089999999999   F   F   F
  0.0000000000000000  0.5000000000000000  0.4349640000000008   F   F   F
  0.5000000000000000  0.5000000000000000  0.4349640000000008   F   F   F
  0.5000000000000000  0.0000000000000000  0.4349640000000008   F   F   F
  0.0000000000000000  0.0000000000000000  0.4349640000000008   F   F   F
  0.3333330000000032  0.1666669999999968  0.4101199999999992   F   F   F
  0.8333330000000032  0.1666669999999968  0.4101199999999992   F   F   F
  0.8333330000000032  0.6666669999999968  0.4101199999999992   F   F   F
  0.3333330000000032  0.6666669999999968  0.4101199999999992   F   F   F
  0.6666669999999968  0.3333330000000032  0.3852750000000000   F   F   F
  0.6666669999999968  0.8333330000000032  0.3852750000000000   F   F   F
  0.1666669999999968  0.8333330000000032  0.3852750000000000   F   F   F
  0.1666669999999968  0.3333330000000032  0.3852750000000000   F   F   F
  0.0000000000000000  0.0000000000000000  0.3604309999999984   F   F   F
  0.0000000000000000  0.5000000000000000  0.3604309999999984   F   F   F
  0.5000000000000000  0.5000000000000000  0.3604309999999984   F   F   F
  0.5000000000000000  0.0000000000000000  0.3604309999999984   F   F   F
  0.3333330000000032  0.6666669999999968  0.3355859999999993   F   F   F
  0.3333330000000032  0.1666669999999968  0.3355859999999993   F   F   F
  0.8333330000000032  0.1666669999999968  0.3355859999999993   F   F   F
  0.8333330000000032  0.6666669999999968  0.3355859999999993   F   F   F
  0.6666669999999968  0.3333330000000032  0.3107419999999976   F   F   F
  0.6666669999999968  0.8333330000000032  0.3107419999999976   F   F   F
  0.1666669999999968  0.8333330000000032  0.3107419999999976   F   F   F
  0.1666669999999968  0.3333330000000032  0.3107419999999976   F   F   F
  0.0000000000000000  0.0000000000000000  0.2858969999999985   F   F   F
  0.0000000000000000  0.5000000000000000  0.2858969999999985   F   F   F
  0.5000000000000000  0.5000000000000000  0.2858969999999985   F   F   F
  0.5000000000000000  0.0000000000000000  0.2858969999999985   F   F   F
  0.3333330000000032  0.6666669999999968  0.2610529999999969   F   F   F
  0.3333330000000032  0.1666669999999968  0.2610529999999969   F   F   F
  0.8333330000000032  0.1666669999999968  0.2610529999999969   F   F   F
  0.8333330000000032  0.6666669999999968  0.2610529999999969   F   F   F
  0.6666669999999968  0.3333330000000032  0.2362079999999978   F   F   F
  0.6666669999999968  0.8333330000000032  0.2362079999999978   F   F   F
  0.1666669999999968  0.8333330000000032  0.2362079999999978   F   F   F
  0.1666669999999968  0.3333330000000032  0.2362079999999978   F   F   F
 -0.0000000000000000  0.0000000000000000  0.5271122899238264   T   T   T
  0.9740279258369621  0.4870134629184787  0.5263471515458250   T   T   T
  0.5129865370815211  0.4870134629184787  0.5263471515458250   T   T   T
  0.5129865370815211  0.0259720741630379  0.5263471515458250   T   T   T
  0.3333330000000032  0.6666669999999968  0.5044700443574486   T   T   T
  0.3319092629437904  0.1659551314718975  0.5042113602530042   T   T   T
  0.8340448685281026  0.1659551314718975  0.5042113602530042   T   T   T
  0.8340448685281026  0.6680907370562098  0.5042113602530042   T   T   T
  0.6666669999999968  0.3333330000000032  0.4787189735718023   T   T   T
  0.6661427610889882  0.8330713805444905  0.4786667983754435   T   T   T
  0.1669286194555095  0.8330713805444905  0.4786667983754435   T   T   T
  0.1669286194555095  0.3338572389110119  0.4786667983754435   T   T   T
  0.0000000000000000  0.0000000000000000  0.4535970000000020   F   F   F
  0.0000000000000000  0.5000000000000000  0.4535970000000020   F   F   F
  0.5000000000000000  0.5000000000000000  0.4535970000000020   F   F   F
  0.5000000000000000  0.0000000000000000  0.4535970000000020   F   F   F
  0.3333330000000032  0.6666669999999968  0.4287530000000004   F   F   F
  0.3333330000000032  0.1666669999999968  0.4287530000000004   F   F   F
  0.8333330000000032  0.1666669999999968  0.4287530000000004   F   F   F
  0.8333330000000032  0.6666669999999968  0.4287530000000004   F   F   F
  0.6666669999999968  0.3333330000000032  0.4039080000000013   F   F   F
  0.6666669999999968  0.8333330000000032  0.4039080000000013   F   F   F
  0.1666669999999968  0.8333330000000032  0.4039080000000013   F   F   F
  0.1666669999999968  0.3333330000000032  0.4039080000000013   F   F   F
  0.0000000000000000  0.0000000000000000  0.3790639999999996   F   F   F
  0.0000000000000000  0.5000000000000000  0.3790639999999996   F   F   F
  0.5000000000000000  0.5000000000000000  0.3790639999999996   F   F   F
  0.5000000000000000  0.0000000000000000  0.3790639999999996   F   F   F
  0.3333330000000032  0.6666669999999968  0.3542190000000005   F   F   F
  0.3333330000000032  0.1666669999999968  0.3542190000000005   F   F   F
  0.8333330000000032  0.1666669999999968  0.3542190000000005   F   F   F
  0.8333330000000032  0.6666669999999968  0.3542190000000005   F   F   F
  0.6666669999999968  0.3333330000000032  0.3293749999999989   F   F   F
  0.6666669999999968  0.8333330000000032  0.3293749999999989   F   F   F
  0.1666669999999968  0.8333330000000032  0.3293749999999989   F   F   F
  0.1666669999999968  0.3333330000000032  0.3293749999999989   F   F   F
  0.0000000000000000  0.0000000000000000  0.3045299999999997   F   F   F
  0.0000000000000000  0.5000000000000000  0.3045299999999997   F   F   F
  0.5000000000000000  0.5000000000000000  0.3045299999999997   F   F   F
  0.5000000000000000  0.0000000000000000  0.3045299999999997   F   F   F
  0.3333330000000032  0.6666669999999968  0.2796859999999981   F   F   F
  0.3333330000000032  0.1666669999999968  0.2796859999999981   F   F   F
  0.8333330000000032  0.1666669999999968  0.2796859999999981   F   F   F
  0.8333330000000032  0.6666669999999968  0.2796859999999981   F   F   F
  0.6666669999999968  0.3333330000000032  0.2548409999999990   F   F   F
  0.6666669999999968  0.8333330000000032  0.2548409999999990   F   F   F
  0.1666669999999968  0.8333330000000032  0.2548409999999990   F   F   F
  0.1666669999999968  0.3333330000000032  0.2548409999999990   F   F   F
  0.0000000000000000  0.0000000000000000  0.2299969999999973   F   F   F
  0.0000000000000000  0.5000000000000000  0.2299969999999973   F   F   F
  0.5000000000000000  0.5000000000000000  0.2299969999999973   F   F   F
  0.5000000000000000  0.0000000000000000  0.2299969999999973   F   F   F
  0.0000000000000000  0.0000000000000000  0.2192160000000030   F   F   F
  0.0000000000000000  0.5000000000000000  0.2192160000000030   F   F   F
  0.5000000000000000  0.5000000000000000  0.2192160000000030   F   F   F
  0.5000000000000000  0.0000000000000000  0.2192160000000030   F   F   F
 
  0.00000000E+00  0.00000000E+00  0.00000000E+00
  0.00000000E+00  0.00000000E+00  0.00000000E+00
  0.00000000E+00  0.00000000E+00  0.00000000E+00
  0.00000000E+00  0.00000000E+00  0.00000000E+00
  0.00000000E+00  0.00000000E+00  0.00000000E+00
  0.00000000E+00  0.00000000E+00  0.00000000E+00
  0.00000000E+00  0.00000000E+00  0.00000000E+00
  0.00000000E+00  0.00000000E+00  0.00000000E+00
  0.00000000E+00  0.00000000E+00  0.00000000E+00
  0.00000000E+00  0.00000000E+00  0.00000000E+00
  0.00000000E+00  0.00000000E+00  0.00000000E+00
  0.00000000E+00  0.00000000E+00  0.00000000E+00
  0.00000000E+00  0.00000000E+00  0.00000000E+00
  0.00000000E+00  0.00000000E+00  0.00000000E+00
  0.00000000E+00  0.00000000E+00  0.00000000E+00
  0.00000000E+00  0.00000000E+00  0.00000000E+00
  0.00000000E+00  0.00000000E+00  0.00000000E+00
  0.00000000E+00  0.00000000E+00  0.00000000E+00
  0.00000000E+00  0.00000000E+00  0.00000000E+00
  0.00000000E+00  0.00000000E+00  0.00000000E+00
  0.00000000E+00  0.00000000E+00  0.00000000E+00
  0.00000000E+00  0.00000000E+00  0.00000000E+00
  0.00000000E+00  0.00000000E+00  0.00000000E+00
  0.00000000E+00  0.00000000E+00  0.00000000E+00
  0.00000000E+00  0.00000000E+00  0.00000000E+00
  0.00000000E+00  0.00000000E+00  0.00000000E+00
  0.00000000E+00  0.00000000E+00  0.00000000E+00
  0.00000000E+00  0.00000000E+00  0.00000000E+00
  0.00000000E+00  0.00000000E+00  0.00000000E+00
  0.00000000E+00  0.00000000E+00  0.00000000E+00
  0.00000000E+00  0.00000000E+00  0.00000000E+00
  0.00000000E+00  0.00000000E+00  0.00000000E+00
  0.00000000E+00  0.00000000E+00  0.00000000E+00
  0.00000000E+00  0.00000000E+00  0.00000000E+00
  0.00000000E+00  0.00000000E+00  0.00000000E+00
  0.00000000E+00  0.00000000E+00  0.00000000E+00
  0.00000000E+00  0.00000000E+00  0.00000000E+00
  0.00000000E+00  0.00000000E+00  0.00000000E+00
  0.00000000E+00  0.00000000E+00  0.00000000E+00
  0.00000000E+00  0.00000000E+00  0.00000000E+00
  0.00000000E+00  0.00000000E+00  0.00000000E+00
  0.00000000E+00  0.00000000E+00  0.00000000E+00
  0.00000000E+00  0.00000000E+00  0.00000000E+00
  0.00000000E+00  0.00000000E+00  0.00000000E+00
  0.00000000E+00  0.00000000E+00  0.00000000E+00
  0.00000000E+00  0.00000000E+00  0.00000000E+00
  0.00000000E+00  0.00000000E+00  0.00000000E+00
  0.00000000E+00  0.00000000E+00  0.00000000E+00
  0.00000000E+00  0.00000000E+00  0.00000000E+00
  0.00000000E+00  0.00000000E+00  0.00000000E+00
  0.00000000E+00  0.00000000E+00  0.00000000E+00
  0.00000000E+00  0.00000000E+00  0.00000000E+00
  0.00000000E+00  0.00000000E+00  0.00000000E+00
  0.00000000E+00  0.00000000E+00  0.00000000E+00
  0.00000000E+00  0.00000000E+00  0.00000000E+00
  0.00000000E+00  0.00000000E+00  0.00000000E+00
  0.00000000E+00  0.00000000E+00  0.00000000E+00
  0.00000000E+00  0.00000000E+00  0.00000000E+00
  0.00000000E+00  0.00000000E+00  0.00000000E+00
  0.00000000E+00  0.00000000E+00  0.00000000E+00
  0.00000000E+00  0.00000000E+00  0.00000000E+00
  0.00000000E+00  0.00000000E+00  0.00000000E+00
  0.00000000E+00  0.00000000E+00  0.00000000E+00
  0.00000000E+00  0.00000000E+00  0.00000000E+00
  0.00000000E+00  0.00000000E+00  0.00000000E+00
  0.00000000E+00  0.00000000E+00  0.00000000E+00
  0.00000000E+00  0.00000000E+00  0.00000000E+00
  0.00000000E+00  0.00000000E+00  0.00000000E+00
  0.00000000E+00  0.00000000E+00  0.00000000E+00
  0.00000000E+00  0.00000000E+00  0.00000000E+00
  0.00000000E+00  0.00000000E+00  0.00000000E+00
  0.00000000E+00  0.00000000E+00  0.00000000E+00
  0.00000000E+00  0.00000000E+00  0.00000000E+00
  0.00000000E+00  0.00000000E+00  0.00000000E+00
  0.00000000E+00  0.00000000E+00  0.00000000E+00
  0.00000000E+00  0.00000000E+00  0.00000000E+00
  0.00000000E+00  0.00000000E+00  0.00000000E+00
  0.00000000E+00  0.00000000E+00  0.00000000E+00
  0.00000000E+00  0.00000000E+00  0.00000000E+00
  0.00000000E+00  0.00000000E+00  0.00000000E+00
  0.00000000E+00  0.00000000E+00  0.00000000E+00
  0.00000000E+00  0.00000000E+00  0.00000000E+00
  0.00000000E+00  0.00000000E+00  0.00000000E+00
  0.00000000E+00  0.00000000E+00  0.00000000E+00
  0.00000000E+00  0.00000000E+00  0.00000000E+00
  0.00000000E+00  0.00000000E+00  0.00000000E+00
  0.00000000E+00  0.00000000E+00  0.00000000E+00
  0.00000000E+00  0.00000000E+00  0.00000000E+00
  0.00000000E+00  0.00000000E+00  0.00000000E+00
  0.00000000E+00  0.00000000E+00  0.00000000E+00
  0.00000000E+00  0.00000000E+00  0.00000000E+00
  0.00000000E+00  0.00000000E+00  0.00000000E+00
  0.00000000E+00  0.00000000E+00  0.00000000E+00
  0.00000000E+00  0.00000000E+00  0.00000000E+00
  0.00000000E+00  0.00000000E+00  0.00000000E+00
  0.00000000E+00  0.00000000E+00  0.00000000E+00
  0.00000000E+00  0.00000000E+00  0.00000000E+00
  0.00000000E+00  0.00000000E+00  0.00000000E+00
  0.00000000E+00  0.00000000E+00  0.00000000E+00
  0.00000000E+00  0.00000000E+00  0.00000000E+00
  0.00000000E+00  0.00000000E+00  0.00000000E+00
  0.00000000E+00  0.00000000E+00  0.00000000E+00
  0.00000000E+00  0.00000000E+00  0.00000000E+00
  0.00000000E+00  0.00000000E+00  0.00000000E+00
  0.00000000E+00  0.00000000E+00  0.00000000E+00
  0.00000000E+00  0.00000000E+00  0.00000000E+00
  0.00000000E+00  0.00000000E+00  0.00000000E+00
  0.00000000E+00  0.00000000E+00  0.00000000E+00
  0.00000000E+00  0.00000000E+00  0.00000000E+00
  0.00000000E+00  0.00000000E+00  0.00000000E+00
  0.00000000E+00  0.00000000E+00  0.00000000E+00
  0.00000000E+00  0.00000000E+00  0.00000000E+00
  0.00000000E+00  0.00000000E+00  0.00000000E+00
  0.00000000E+00  0.00000000E+00  0.00000000E+00
  0.00000000E+00  0.00000000E+00  0.00000000E+00
  0.00000000E+00  0.00000000E+00  0.00000000E+00
  0.00000000E+00  0.00000000E+00  0.00000000E+00
  0.00000000E+00  0.00000000E+00  0.00000000E+00
  0.00000000E+00  0.00000000E+00  0.00000000E+00
  0.00000000E+00  0.00000000E+00  0.00000000E+00
  0.00000000E+00  0.00000000E+00  0.00000000E+00
  0.00000000E+00  0.00000000E+00  0.00000000E+00
  0.00000000E+00  0.00000000E+00  0.00000000E+00
  0.00000000E+00  0.00000000E+00  0.00000000E+00
  0.00000000E+00  0.00000000E+00  0.00000000E+00
  0.00000000E+00  0.00000000E+00  0.00000000E+00
  0.00000000E+00  0.00000000E+00  0.00000000E+00
  0.00000000E+00  0.00000000E+00  0.00000000E+00
  0.00000000E+00  0.00000000E+00  0.00000000E+00
  0.00000000E+00  0.00000000E+00  0.00000000E+00
  0.00000000E+00  0.00000000E+00  0.00000000E+00
  0.00000000E+00  0.00000000E+00  0.00000000E+00
  0.00000000E+00  0.00000000E+00  0.00000000E+00
  0.00000000E+00  0.00000000E+00  0.00000000E+00
  0.00000000E+00  0.00000000E+00  0.00000000E+00
  0.00000000E+00  0.00000000E+00  0.00000000E+00
  0.00000000E+00  0.00000000E+00  0.00000000E+00
  0.00000000E+00  0.00000000E+00  0.00000000E+00
  0.00000000E+00  0.00000000E+00  0.00000000E+00
  0.00000000E+00  0.00000000E+00  0.00000000E+00
  0.00000000E+00  0.00000000E+00  0.00000000E+00
  0.00000000E+00  0.00000000E+00  0.00000000E+00
  0.00000000E+00  0.00000000E+00  0.00000000E+00
  0.00000000E+00  0.00000000E+00  0.00000000E+00
  0.00000000E+00  0.00000000E+00  0.00000000E+00
  0.00000000E+00  0.00000000E+00  0.00000000E+00
  0.00000000E+00  0.00000000E+00  0.00000000E+00
  0.00000000E+00  0.00000000E+00  0.00000000E+00
  0.00000000E+00  0.00000000E+00  0.00000000E+00
  0.00000000E+00  0.00000000E+00  0.00000000E+00
  0.00000000E+00  0.00000000E+00  0.00000000E+00
  0.00000000E+00  0.00000000E+00  0.00000000E+00
  0.00000000E+00  0.00000000E+00  0.00000000E+00
  0.00000000E+00  0.00000000E+00  0.00000000E+00
  0.00000000E+00  0.00000000E+00  0.00000000E+00
  0.00000000E+00  0.00000000E+00  0.00000000E+00
  0.00000000E+00  0.00000000E+00  0.00000000E+00
  0.00000000E+00  0.00000000E+00  0.00000000E+00
  0.00000000E+00  0.00000000E+00  0.00000000E+00
  0.00000000E+00  0.00000000E+00  0.00000000E+00
  0.00000000E+00  0.00000000E+00  0.00000000E+00
  0.00000000E+00  0.00000000E+00  0.00000000E+00
  0.00000000E+00  0.00000000E+00  0.00000000E+00
  0.00000000E+00  0.00000000E+00  0.00000000E+00
  0.00000000E+00  0.00000000E+00  0.00000000E+00
  0.00000000E+00  0.00000000E+00  0.00000000E+00
  0.00000000E+00  0.00000000E+00  0.00000000E+00
