Al45 In20 As20
1.0
-4.283936 -7.419994 0.000000
-4.283936 7.419994 0.000000
0.000000 0.000000 -56.193239
Al In As
45 20 20
direct
1.000000 0.666667 0.300138 Al
0.000000 0.333333 0.300138 Al
0.000000 0.000000 0.300138 Al
0.666667 0.333333 0.300138 Al
0.666667 0.000000 0.300138 Al
0.666667 0.666667 0.300138 Al
0.333333 0.000000 0.300138 Al
0.333333 0.666667 0.300138 Al
0.333333 0.333333 0.300138 Al
0.444444 0.888889 0.341636 Al
0.444444 0.555556 0.341636 Al
0.444444 0.222222 0.341636 Al
0.111111 0.555556 0.341636 Al
0.111111 0.222222 0.341636 Al
0.111111 0.888889 0.341636 Al
0.777778 0.222222 0.341636 Al
0.777778 0.888889 0.341636 Al
0.777778 0.555556 0.341636 Al
0.222222 0.444444 0.383133 Al
0.222222 0.111111 0.383133 Al
0.222222 0.777778 0.383133 Al
0.888889 0.111111 0.383133 Al
0.888889 0.777778 0.383133 Al
0.888889 0.444444 0.383133 Al
0.555556 0.777778 0.383133 Al
0.555556 0.444444 0.383133 Al
0.555556 0.111111 0.383133 Al
0.000000 0.666667 0.424630 Al
0.000000 0.333333 0.424630 Al
0.000000 0.000000 0.424630 Al
0.666667 0.333333 0.424630 Al
0.666667 1.000000 0.424630 Al
0.666667 0.666667 0.424630 Al
0.333333 1.000000 0.424630 Al
0.333333 0.666667 0.424630 Al
0.333333 0.333333 0.424630 Al
0.444444 0.888889 0.466128 Al
0.444444 0.555556 0.466128 Al
0.444444 0.222222 0.466128 Al
0.111111 0.555556 0.466128 Al
0.111111 0.222222 0.466128 Al
0.111111 0.888889 0.466128 Al
0.777778 0.222222 0.466128 Al
0.777778 0.888889 0.466128 Al
0.777778 0.555556 0.466128 Al
0.000000 0.000000 0.015562 In
1.000000 0.500000 0.015562 In
0.500000 0.500000 0.015562 In
0.500000 0.000000 0.015562 In
0.666667 0.333333 0.077808 In
0.666667 0.833333 0.077808 In
0.166667 0.833333 0.077808 In
0.166667 0.333333 0.077808 In
0.333333 0.666667 0.140054 In
0.333333 0.166667 0.140054 In
0.833333 0.166667 0.140054 In
0.833333 0.666667 0.140054 In
0.000000 0.000000 0.202300 In
0.000000 0.500000 0.202300 In
0.500000 0.500000 0.202300 In
0.500000 1.000000 0.202300 In
0.666667 0.333333 0.264547 In
0.666667 0.833333 0.264547 In
0.166667 0.833333 0.264547 In
0.166667 0.333333 0.264547 In
0.333333 0.666667 0.000000 As
0.333333 0.166667 0.000000 As
0.833333 0.166667 0.000000 As
0.833333 0.666667 0.000000 As
0.000000 0.000000 0.062246 As
0.000000 0.500000 0.062246 As
0.500000 0.500000 0.062246 As
0.500000 1.000000 0.062246 As
0.666667 0.333333 0.124493 As
0.666667 0.833333 0.124493 As
0.166667 0.833333 0.124493 As
0.166667 0.333333 0.124493 As
0.333333 0.666667 0.186739 As
0.333333 0.166667 0.186739 As
0.833333 0.166667 0.186739 As
0.833333 0.666667 0.186739 As
0.000000 0.000000 0.248985 As
0.000000 0.500000 0.248985 As
0.500000 0.500000 0.248985 As
0.500000 1.000000 0.248985 As
