Mn5 In8 Ni10 As3
1.0
4.283865 0.000000 0.000000
0.000000 4.283865 0.000000
0.000000 0.000000 21.774900000000002
Mn In Ni As
5 7 8 3
cartesian
2.141933 2.141933 7.8583 Mn
0.000000 0.000000 10.88745 Mn
2.141933 2.141933 13.9166 Mn
0.000000 0.000000 16.94575 Mn
2.141933 2.141933 19.9749 Mn
2.141933 2.141933 1.514575 In
0.000000 0.000000 4.543725 In
0.000000 0.000000 7.8583 In
2.141933 2.141933 10.88745 In
0.000000 0.000000 13.9166 In
2.141933 2.141933 16.94575 In
0.000000 0.000000 19.9749 In
2.141933 0.000000 9.372875 Ni
4.283865 2.141933 9.372875 Ni
2.141933 0.000000 12.402025 Ni
4.283865 2.141933 12.402025 Ni
2.141933 0.000000 15.431175 Ni
4.283865 2.141933 15.431175 Ni
2.141933 0.000000 18.460325 Ni
4.283865 2.141933 18.460325 Ni
2.141933 0.000000 0.0 As
4.283865 2.141933 3.02915 As
2.141933 0.000000 6.0583 As
