In1 As1
1.0
4.000000 0.000000 0.000000
0.000000 4.000000 0.000000
0.000000 0.000000 4.000000
In As
1 1
direct
0.500000 0.500000 0.250000 In
0.500000 0.500000 0.750000 As
