In10 As10
1.0
4.283936 0.000000 0.000000
0.000000 4.283936 0.000000
0.000000 0.000000 212.044000
As In
10 10
direct
0.500000 0.000000 0.996429 As
0.000000 0.500000 0.982143 As
0.500000 0.000000 0.967857 As
0.000000 0.500000 0.953571 As
0.500000 0.000000 0.939286 As
0.000000 0.500000 0.925000 As
0.500000 0.000000 0.910714 As
0.000000 0.500000 0.896429 As
0.500000 0.000000 0.882143 As
0.000000 0.500000 0.867857 As
0.000000 0.000000 0.975000 In
0.500000 0.500000 0.989286 In
0.000000 0.000000 0.946429 In
0.500000 0.500000 0.960714 In
0.000000 0.000000 0.917857 In
0.500000 0.500000 0.932143 In
0.000000 0.000000 0.889286 In
0.500000 0.500000 0.903571 In
0.000000 0.000000 0.860714 In
0.500000 0.500000 0.875000 In
