In4 Sb4
1.0
6.479400 0.000000 0.000000
0.000000 6.479400 0.000000
0.000000 0.000000 11.859550
In Sb
4 4
direct
0.000000 0.000000 0.704879 In
0.500000 0.500000 0.704879 In
0.000000 0.500000 0.431707 In
0.500000 0.000000 0.431707 In
0.250000 0.250000 0.295121 Sb
0.750000 0.750000 0.295121 Sb
0.250000 0.750000 0.568293 Sb
0.750000 0.250000 0.568293 Sb
