Mn5 In8 Ni10 As3
1.0
4.283865 0.000000 0.000000
0.000000 4.283865 0.000000
0.000000 0.000000 20.97490
Mn In Ni As
3 5 8 3
cartesian
0.000000 0.000000 12.002025 Mn
2.141933 2.141933 15.031175 Mn
0.000000 0.000000 18.060325 Mn
0.000000 2.141933 4.543725 In
2.141933 0.000000 7.572875 In
2.141933 2.141933 12.002025 In
0.000000 0.000000 15.031175 In
2.141933 2.141933 18.060325 In
2.141933 0.000000 10.48745 Ni
4.283865 2.141933 10.48745 Ni
2.141933 0.000000 13.5166 Ni
4.283865 2.141933 13.5166 Ni
2.141933 0.000000 16.54575 Ni
4.283865 2.141933 16.54575 Ni
2.141933 0.000000 19.5749 Ni
4.283865 2.141933 19.5749 Ni
0.000000 0.000000 3.02915 As
2.141933 2.141933 6.0583 As
0.000000 0.000000 9.08745 As
