In5 As5
1.0
2.141968 -3.709997 0.000000
2.141968 3.709997 0.000000
0.000000 0.000000 34.865730
In As
5 5
direct
0.000000 0.000000 0.311895 In
0.333333 0.666667 0.412218 In
0.666667 0.333333 0.512540 In
0.000000 0.000000 0.612863 In
0.333333 0.666667 0.713185 In
0.666667 0.333333 0.286815 As
0.000000 0.000000 0.387137 As
0.333333 0.666667 0.487460 As
0.666667 0.333333 0.587782 As
0.000000 0.000000 0.688105 As
