Mn6 In12 Ni12 As6
1.0
0.000000 4.283936 0.000000
4.283936 0.000000 -0.000000
-0.000000 0.000000 -75.320925
Mn In Ni As
6 12 12 6
direct
0.000000 0.500000 0.287964 Mn
0.500000 0.000000 0.247748 Mn
0.000000 0.500000 0.368398 Mn
0.500000 0.000000 0.328181 Mn
0.000000 0.500000 0.448831 Mn
0.500000 0.000000 0.408614 Mn
0.000000 0.500000 0.040217 In
0.500000 0.000000 0.000000 In
0.000000 0.500000 0.120652 In
0.500000 0.000000 0.080434 In
0.000000 0.500000 0.201086 In
0.500000 0.000000 0.160869 In
0.500000 0.000000 0.287964 In
0.000000 0.500000 0.247748 In
0.500000 0.000000 0.368398 In
0.000000 0.500000 0.328181 In
0.500000 0.000000 0.448831 In
0.000000 0.500000 0.408614 In
0.500000 0.500000 0.267856 Ni
0.000000 0.000000 0.267856 Ni
0.000000 0.000000 0.308073 Ni
0.500000 0.500000 0.308073 Ni
0.500000 0.500000 0.348289 Ni
0.000000 0.000000 0.348289 Ni
0.000000 0.000000 0.388506 Ni
0.500000 0.500000 0.388506 Ni
0.500000 0.500000 0.428722 Ni
0.000000 0.000000 0.428722 Ni
0.000000 0.000000 0.468939 Ni
0.500000 0.500000 0.468939 Ni
0.000000 0.000000 0.060326 As
0.500000 0.500000 0.020109 As
0.000000 0.000000 0.140760 As
0.500000 0.500000 0.100543 As
0.000000 0.000000 0.221195 As
0.500000 0.500000 0.180978 As
