Al90 In40 As40
1.0
0.000000 8.567871 0.000000
8.567871 0.000000 -0.000000
-0.000000 0.000000 -78.952585
Al In As
90 40 40
direct
0.000000 0.000000 0.415400 Al
0.333333 0.666667 0.415400 Al
0.666667 0.333333 0.415400 Al
0.666667 0.666667 0.415400 Al
0.000000 0.333333 0.415400 Al
0.333333 0.000000 0.415400 Al
0.333333 0.333333 0.415400 Al
0.666667 0.000000 0.415400 Al
0.000000 0.666667 0.415400 Al
0.166667 0.833333 0.389821 Al
0.500000 0.500000 0.389821 Al
0.833333 0.166667 0.389821 Al
0.833333 0.500000 0.389821 Al
0.166667 0.166667 0.389821 Al
0.500000 0.833333 0.389821 Al
0.500000 0.166667 0.389821 Al
0.833333 0.833333 0.389821 Al
0.166667 0.500000 0.389821 Al
0.000000 0.000000 0.466556 Al
0.333333 0.666667 0.466556 Al
0.666667 0.333333 0.466556 Al
0.666667 0.666667 0.466556 Al
0.000000 0.333333 0.466556 Al
0.333333 0.000000 0.466556 Al
0.333333 0.333333 0.466556 Al
0.666667 0.000000 0.466556 Al
0.000000 0.666667 0.466556 Al
0.166667 0.833333 0.440978 Al
0.500000 0.500000 0.440978 Al
0.833333 0.166667 0.440978 Al
0.833333 0.500000 0.440978 Al
0.166667 0.166667 0.440978 Al
0.500000 0.833333 0.440978 Al
0.500000 0.166667 0.440978 Al
0.833333 0.833333 0.440978 Al
0.166667 0.500000 0.440978 Al
0.000000 0.000000 0.517712 Al
0.333333 0.666667 0.517712 Al
0.666667 0.333333 0.517712 Al
0.666667 0.666667 0.517712 Al
0.000000 0.333333 0.517712 Al
0.333333 0.000000 0.517712 Al
0.333333 0.333333 0.517712 Al
0.666667 0.000000 0.517712 Al
0.000000 0.666667 0.517712 Al
0.166667 0.833333 0.492134 Al
0.500000 0.500000 0.492134 Al
0.833333 0.166667 0.492134 Al
0.833333 0.500000 0.492134 Al
0.166667 0.166667 0.492134 Al
0.500000 0.833333 0.492134 Al
0.500000 0.166667 0.492134 Al
0.833333 0.833333 0.492134 Al
0.166667 0.500000 0.492134 Al
0.000000 0.000000 0.568869 Al
0.333333 0.666667 0.568869 Al
0.666667 0.333333 0.568869 Al
0.666667 0.666667 0.568869 Al
0.000000 0.333333 0.568869 Al
0.333333 0.000000 0.568869 Al
0.333333 0.333333 0.568869 Al
0.666667 0.000000 0.568869 Al
0.000000 0.666667 0.568869 Al
0.166667 0.833333 0.543291 Al
0.500000 0.500000 0.543291 Al
0.833333 0.166667 0.543291 Al
0.833333 0.500000 0.543291 Al
0.166667 0.166667 0.543291 Al
0.500000 0.833333 0.543291 Al
0.500000 0.166667 0.543291 Al
0.833333 0.833333 0.543291 Al
0.166667 0.500000 0.543291 Al
0.000000 0.000000 0.620025 Al
0.333333 0.666667 0.620025 Al
0.666667 0.333333 0.620025 Al
0.666667 0.666667 0.620025 Al
0.000000 0.333333 0.620025 Al
0.333333 0.000000 0.620025 Al
0.333333 0.333333 0.620025 Al
0.666667 0.000000 0.620025 Al
0.000000 0.666667 0.620025 Al
0.166667 0.833333 0.594447 Al
0.500000 0.500000 0.594447 Al
0.833333 0.166667 0.594447 Al
0.833333 0.500000 0.594447 Al
0.166667 0.166667 0.594447 Al
0.500000 0.833333 0.594447 Al
0.500000 0.166667 0.594447 Al
0.833333 0.833333 0.594447 Al
0.166667 0.500000 0.594447 Al
0.000000 -0.000000 0.019184 In
0.500000 0.500000 0.019184 In
0.000000 0.500000 0.019184 In
0.500000 -0.000000 0.019184 In
0.250000 0.750000 0.057551 In
0.750000 0.250000 0.057551 In
0.750000 0.750000 0.057551 In
0.250000 0.250000 0.057551 In
0.000000 -0.000000 0.095918 In
0.500000 0.500000 0.095918 In
0.000000 0.500000 0.095918 In
0.500000 -0.000000 0.095918 In
0.250000 0.750000 0.134286 In
0.750000 0.250000 0.134286 In
0.750000 0.750000 0.134286 In
0.250000 0.250000 0.134286 In
0.000000 -0.000000 0.172653 In
0.500000 0.500000 0.172653 In
0.000000 0.500000 0.172653 In
0.500000 -0.000000 0.172653 In
0.250000 0.750000 0.211020 In
0.750000 0.250000 0.211020 In
0.750000 0.750000 0.211020 In
0.250000 0.250000 0.211020 In
0.000000 -0.000000 0.249388 In
0.500000 0.500000 0.249388 In
0.000000 0.500000 0.249388 In
0.500000 -0.000000 0.249388 In
0.250000 0.750000 0.287755 In
0.750000 0.250000 0.287755 In
0.750000 0.750000 0.287755 In
0.250000 0.250000 0.287755 In
0.000000 -0.000000 0.326122 In
0.500000 0.500000 0.326122 In
0.000000 0.500000 0.326122 In
0.500000 -0.000000 0.326122 In
0.250000 0.750000 0.364490 In
0.750000 0.250000 0.364490 In
0.750000 0.750000 0.364490 In
0.250000 0.250000 0.364490 In
0.000000 0.750000 0.038367 As
0.500000 0.250000 0.038367 As
0.000000 0.250000 0.038367 As
0.500000 0.750000 0.038367 As
0.250000 0.500000 0.000000 As
0.750000 0.000000 0.000000 As
0.750000 0.500000 0.000000 As
0.250000 0.000000 0.000000 As
0.000000 0.750000 0.115102 As
0.500000 0.250000 0.115102 As
0.000000 0.250000 0.115102 As
0.500000 0.750000 0.115102 As
0.250000 0.500000 0.076735 As
0.750000 -0.000000 0.076735 As
0.750000 0.500000 0.076735 As
0.250000 -0.000000 0.076735 As
0.000000 0.750000 0.191837 As
0.500000 0.250000 0.191837 As
0.000000 0.250000 0.191837 As
0.500000 0.750000 0.191837 As
0.250000 0.500000 0.153469 As
0.750000 -0.000000 0.153469 As
0.750000 0.500000 0.153469 As
0.250000 -0.000000 0.153469 As
0.000000 0.750000 0.268571 As
0.500000 0.250000 0.268571 As
0.000000 0.250000 0.268571 As
0.500000 0.750000 0.268571 As
0.250000 0.500000 0.230204 As
0.750000 -0.000000 0.230204 As
0.750000 0.500000 0.230204 As
0.250000 -0.000000 0.230204 As
0.000000 0.750000 0.345306 As
0.500000 0.250000 0.345306 As
0.000000 0.250000 0.345306 As
0.500000 0.750000 0.345306 As
0.250000 0.500000 0.306939 As
0.750000 -0.000000 0.306939 As
0.750000 0.500000 0.306939 As
0.250000 -0.000000 0.306939 As
