In20 Fe50 Sb20
1.0
6.479400 -0.000000 -0.000000
-0.000000 6.479400 -0.000000
-0.000000 -0.000000 85.774150
In Fe Sb
20 50 20
direct
0.000000 0.000000 0.000000 In
0.500000 0.500000 0.000000 In
0.500000 0.000000 0.037770 In
0.000000 0.500000 0.037770 In
0.000000 0.000000 0.075540 In
0.500000 0.500000 0.075540 In
0.500000 0.000000 0.113310 In
0.000000 0.500000 0.113310 In
0.000000 0.000000 0.151080 In
0.500000 0.500000 0.151080 In
0.500000 0.000000 0.188851 In
0.000000 0.500000 0.188851 In
0.000000 0.000000 0.226621 In
0.500000 0.500000 0.226621 In
0.500000 0.000000 0.264391 In
0.000000 0.500000 0.264391 In
0.000000 0.000000 0.302161 In
0.500000 0.500000 0.302161 In
0.500000 0.000000 0.339931 In
0.000000 0.500000 0.339931 In
0.000000 0.000000 0.400006 Fe
0.400000 0.800000 0.400006 Fe
0.800000 0.600000 0.400006 Fe
0.200000 0.400000 0.400006 Fe
0.600000 0.200000 0.400006 Fe
0.300000 0.100000 0.383299 Fe
0.700000 0.900000 0.383299 Fe
0.100000 0.700000 0.383299 Fe
0.500000 0.500000 0.383299 Fe
0.900000 0.300000 0.383299 Fe
0.000000 0.000000 0.433419 Fe
0.400000 0.800000 0.433419 Fe
0.800000 0.600000 0.433419 Fe
0.200000 0.400000 0.433419 Fe
0.600000 0.200000 0.433419 Fe
0.300000 0.100000 0.416712 Fe
0.700000 0.900000 0.416712 Fe
0.100000 0.700000 0.416712 Fe
0.500000 0.500000 0.416712 Fe
0.900000 0.300000 0.416712 Fe
0.000000 0.000000 0.466832 Fe
0.400000 0.800000 0.466832 Fe
0.800000 0.600000 0.466832 Fe
0.200000 0.400000 0.466832 Fe
0.600000 0.200000 0.466832 Fe
0.300000 0.100000 0.450126 Fe
0.700000 0.900000 0.450126 Fe
0.100000 0.700000 0.450126 Fe
0.500000 0.500000 0.450126 Fe
0.900000 0.300000 0.450126 Fe
0.000000 0.000000 0.500246 Fe
0.400000 0.800000 0.500246 Fe
0.800000 0.600000 0.500246 Fe
0.200000 0.400000 0.500246 Fe
0.600000 0.200000 0.500246 Fe
0.300000 0.100000 0.483539 Fe
0.700000 0.900000 0.483539 Fe
0.100000 0.700000 0.483539 Fe
0.500000 0.500000 0.483539 Fe
0.900000 0.300000 0.483539 Fe
0.000000 0.000000 0.533659 Fe
0.400000 0.800000 0.533659 Fe
0.800000 0.600000 0.533659 Fe
0.200000 0.400000 0.533659 Fe
0.600000 0.200000 0.533659 Fe
0.300000 0.100000 0.516952 Fe
0.700000 0.900000 0.516952 Fe
0.100000 0.700000 0.516952 Fe
0.500000 0.500000 0.516952 Fe
0.900000 0.300000 0.516952 Fe
0.250000 0.250000 0.018885 Sb
0.750000 0.750000 0.018885 Sb
0.750000 0.250000 0.056655 Sb
0.250000 0.750000 0.056655 Sb
0.250000 0.250000 0.094425 Sb
0.750000 0.750000 0.094425 Sb
0.750000 0.250000 0.132195 Sb
0.250000 0.750000 0.132195 Sb
0.250000 0.250000 0.169966 Sb
0.750000 0.750000 0.169966 Sb
0.750000 0.250000 0.207736 Sb
0.250000 0.750000 0.207736 Sb
0.250000 0.250000 0.245506 Sb
0.750000 0.750000 0.245506 Sb
0.750000 0.250000 0.283276 Sb
0.250000 0.750000 0.283276 Sb
0.250000 0.250000 0.321046 Sb
0.750000 0.750000 0.321046 Sb
0.750000 0.250000 0.358816 Sb
0.250000 0.750000 0.358816 Sb
