Al180
1.0
17.135736 0.000000 0.000000
8.567868 14.839983 0.000000
0.000000 0.000000 19.327509
Al
180
direct
0.000000 0.000000 0.002587 Al
0.000000 0.333333 0.002587 Al
0.000000 0.666667 0.002587 Al
0.333333 0.000000 0.002587 Al
0.333333 0.333333 0.002587 Al
0.333333 0.666667 0.002587 Al
0.666667 0.000000 0.002587 Al
0.666667 0.333333 0.002587 Al
0.666667 0.666667 0.002587 Al
0.000000 0.166667 0.002587 Al
0.000000 0.500000 0.002587 Al
0.000000 0.833333 0.002587 Al
0.333333 0.166667 0.002587 Al
0.333333 0.500000 0.002587 Al
0.333333 0.833333 0.002587 Al
0.666667 0.166667 0.002587 Al
0.666667 0.500000 0.002587 Al
0.666667 0.833333 0.002587 Al
0.166667 0.000000 0.002587 Al
0.166667 0.333333 0.002587 Al
0.166667 0.666667 0.002587 Al
0.500000 0.000000 0.002587 Al
0.500000 0.333333 0.002587 Al
0.500000 0.666667 0.002587 Al
0.833333 0.000000 0.002587 Al
0.833333 0.333333 0.002587 Al
0.833333 0.666667 0.002587 Al
0.166667 0.166667 0.002587 Al
0.166667 0.500000 0.002587 Al
0.166667 0.833333 0.002587 Al
0.500000 0.166667 0.002587 Al
0.500000 0.500000 0.002587 Al
0.500000 0.833333 0.002587 Al
0.833333 0.166667 0.002587 Al
0.833333 0.500000 0.002587 Al
0.833333 0.833333 0.002587 Al
0.222222 0.222222 0.123238 Al
0.222222 0.555556 0.123238 Al
0.222222 0.888889 0.123238 Al
0.555556 0.222222 0.123238 Al
0.555556 0.555556 0.123238 Al
0.555556 0.888889 0.123238 Al
0.888889 0.222222 0.123238 Al
0.888889 0.555556 0.123238 Al
0.888889 0.888889 0.123238 Al
0.222222 0.055556 0.123238 Al
0.222222 0.388889 0.123238 Al
0.222222 0.722222 0.123238 Al
0.555556 0.055556 0.123238 Al
0.555556 0.388889 0.123238 Al
0.555556 0.722222 0.123238 Al
0.888889 0.055556 0.123238 Al
0.888889 0.388889 0.123238 Al
0.888889 0.722222 0.123238 Al
0.055556 0.222222 0.123238 Al
0.055556 0.555556 0.123238 Al
0.055556 0.888889 0.123238 Al
0.388889 0.222222 0.123238 Al
0.388889 0.555556 0.123238 Al
0.388889 0.888889 0.123238 Al
0.722222 0.222222 0.123238 Al
0.722222 0.555556 0.123238 Al
0.722222 0.888889 0.123238 Al
0.055556 0.055556 0.123238 Al
0.055556 0.388889 0.123238 Al
0.055556 0.722222 0.123238 Al
0.388889 0.055556 0.123238 Al
0.388889 0.388889 0.123238 Al
0.388889 0.722222 0.123238 Al
0.722222 0.055556 0.123238 Al
0.722222 0.388889 0.123238 Al
0.722222 0.722222 0.123238 Al
0.111111 0.111111 0.243888 Al
0.111111 0.444444 0.243888 Al
0.111111 0.777778 0.243888 Al
0.444444 0.111111 0.243888 Al
0.444444 0.444444 0.243888 Al
0.444444 0.777778 0.243888 Al
0.777778 0.111111 0.243888 Al
0.777778 0.444444 0.243888 Al
0.777778 0.777778 0.243888 Al
0.111111 0.277778 0.243888 Al
0.111111 0.611111 0.243888 Al
0.111111 0.944444 0.243888 Al
0.444444 0.277778 0.243888 Al
0.444444 0.611111 0.243888 Al
0.444444 0.944444 0.243888 Al
0.777778 0.277778 0.243888 Al
0.777778 0.611111 0.243888 Al
0.777778 0.944444 0.243888 Al
0.277778 0.111111 0.243888 Al
0.277778 0.444444 0.243888 Al
0.277778 0.777778 0.243888 Al
0.611111 0.111111 0.243888 Al
0.611111 0.444444 0.243888 Al
0.611111 0.777778 0.243888 Al
0.944444 0.111111 0.243888 Al
0.944444 0.444444 0.243888 Al
0.944444 0.777778 0.243888 Al
0.277778 0.277778 0.243888 Al
0.277778 0.611111 0.243888 Al
0.277778 0.944444 0.243888 Al
0.611111 0.277778 0.243888 Al
0.611111 0.611111 0.243888 Al
0.611111 0.944444 0.243888 Al
0.944444 0.277778 0.243888 Al
0.944444 0.611111 0.243888 Al
0.944444 0.944444 0.243888 Al
0.000000 1.000000 0.364539 Al
0.000000 0.333333 0.364539 Al
0.000000 0.666667 0.364539 Al
0.333333 1.000000 0.364539 Al
0.333333 0.333333 0.364539 Al
0.333333 0.666667 0.364539 Al
0.666667 1.000000 0.364539 Al
0.666667 0.333333 0.364539 Al
0.666667 0.666667 0.364539 Al
0.000000 0.166667 0.364539 Al
0.000000 0.500000 0.364539 Al
0.000000 0.833333 0.364539 Al
0.333333 0.166667 0.364539 Al
0.333333 0.500000 0.364539 Al
0.333333 0.833333 0.364539 Al
0.666667 0.166667 0.364539 Al
0.666667 0.500000 0.364539 Al
0.666667 0.833333 0.364539 Al
0.166667 1.000000 0.364539 Al
0.166667 0.333333 0.364539 Al
0.166667 0.666667 0.364539 Al
0.500000 1.000000 0.364539 Al
0.500000 0.333333 0.364539 Al
0.500000 0.666667 0.364539 Al
0.833333 1.000000 0.364539 Al
0.833333 0.333333 0.364539 Al
0.833333 0.666667 0.364539 Al
0.166667 0.166667 0.364539 Al
0.166667 0.500000 0.364539 Al
0.166667 0.833333 0.364539 Al
0.500000 0.166667 0.364539 Al
0.500000 0.500000 0.364539 Al
0.500000 0.833333 0.364539 Al
0.833333 0.166667 0.364539 Al
0.833333 0.500000 0.364539 Al
0.833333 0.833333 0.364539 Al
0.222222 0.222222 0.485190 Al
0.222222 0.555556 0.485190 Al
0.222222 0.888889 0.485190 Al
0.555556 0.222222 0.485190 Al
0.555556 0.555556 0.485190 Al
0.555556 0.888889 0.485190 Al
0.888889 0.222222 0.485190 Al
0.888889 0.555556 0.485190 Al
0.888889 0.888889 0.485190 Al
0.222222 0.055556 0.485190 Al
0.222222 0.388889 0.485190 Al
0.222222 0.722222 0.485190 Al
0.555556 0.055556 0.485190 Al
0.555556 0.388889 0.485190 Al
0.555556 0.722222 0.485190 Al
0.888889 0.055556 0.485190 Al
0.888889 0.388889 0.485190 Al
0.888889 0.722222 0.485190 Al
0.055556 0.222222 0.485190 Al
0.055556 0.555556 0.485190 Al
0.055556 0.888889 0.485190 Al
0.388889 0.222222 0.485190 Al
0.388889 0.555556 0.485190 Al
0.388889 0.888889 0.485190 Al
0.722222 0.222222 0.485190 Al
0.722222 0.555556 0.485190 Al
0.722222 0.888889 0.485190 Al
0.055556 0.055556 0.485190 Al
0.055556 0.388889 0.485190 Al
0.055556 0.722222 0.485190 Al
0.388889 0.055556 0.485190 Al
0.388889 0.388889 0.485190 Al
0.388889 0.722222 0.485190 Al
0.722222 0.055556 0.485190 Al
0.722222 0.388889 0.485190 Al
0.722222 0.722222 0.485190 Al
