In4 As4
1.0
0.000000 10.493457 0.000000
4.283936 0.000000 0.000000
0.000000 0.000000 -14.208207
In As
4 4
direct
0.000000 0.000000 0.000000 In
0.666667 0.500000 0.087039 In
0.333333 0.000000 0.174078 In
0.000000 0.500000 0.261116 In
0.750000 0.000000 0.000000 As
0.416667 0.500000 0.087039 As
0.083333 0.000000 0.174078 As
0.750000 0.500000 0.261116 As
