In40 As40
1.0
8.567871 0.000000 0.000000
0.000000 8.567871 0.000000
0.000000 0.000000 48.777400
In As
40 40
direct
0.000000 0.000000 0.763936 In
0.000000 0.500000 0.763936 In
0.500000 0.000000 0.763936 In
0.500000 0.500000 0.763936 In
0.250000 0.250000 0.701833 In
0.250000 0.750000 0.701833 In
0.750000 0.250000 0.701833 In
0.750000 0.750000 0.701833 In
0.000000 0.000000 0.639731 In
0.000000 0.500000 0.639731 In
0.500000 0.000000 0.639731 In
0.500000 0.500000 0.639731 In
0.250000 0.250000 0.577628 In
0.250000 0.750000 0.577628 In
0.750000 0.250000 0.577628 In
0.750000 0.750000 0.577628 In
0.000000 0.000000 0.515526 In
0.000000 0.500000 0.515526 In
0.500000 0.000000 0.515526 In
0.500000 0.500000 0.515526 In
0.250000 0.250000 0.453423 In
0.250000 0.750000 0.453423 In
0.750000 0.250000 0.453423 In
0.750000 0.750000 0.453423 In
0.000000 0.000000 0.391321 In
0.000000 0.500000 0.391321 In
0.500000 0.000000 0.391321 In
0.500000 0.500000 0.391321 In
0.250000 0.250000 0.329218 In
0.250000 0.750000 0.329218 In
0.750000 0.250000 0.329218 In
0.750000 0.750000 0.329218 In
0.000000 0.000000 0.267116 In
0.000000 0.500000 0.267116 In
0.500000 0.000000 0.267116 In
0.500000 0.500000 0.267116 In
0.250000 0.250000 0.205013 In
0.250000 0.750000 0.205013 In
0.750000 0.250000 0.205013 In
0.750000 0.750000 0.205013 In
0.250000 0.000000 0.732884 As
0.250000 0.500000 0.732884 As
0.750000 0.000000 0.732884 As
0.750000 0.500000 0.732884 As
0.000000 0.250000 0.794987 As
0.000000 0.750000 0.794987 As
0.500000 0.250000 0.794987 As
0.500000 0.750000 0.794987 As
0.250000 0.000000 0.608679 As
0.250000 0.500000 0.608679 As
0.750000 0.000000 0.608679 As
0.750000 0.500000 0.608679 As
0.000000 0.250000 0.670782 As
0.000000 0.750000 0.670782 As
0.500000 0.250000 0.670782 As
0.500000 0.750000 0.670782 As
0.250000 0.000000 0.484474 As
0.250000 0.500000 0.484474 As
0.750000 0.000000 0.484474 As
0.750000 0.500000 0.484474 As
0.000000 0.250000 0.546577 As
0.000000 0.750000 0.546577 As
0.500000 0.250000 0.546577 As
0.500000 0.750000 0.546577 As
0.250000 0.000000 0.360269 As
0.250000 0.500000 0.360269 As
0.750000 0.000000 0.360269 As
0.750000 0.500000 0.360269 As
0.000000 0.250000 0.422372 As
0.000000 0.750000 0.422372 As
0.500000 0.250000 0.422372 As
0.500000 0.750000 0.422372 As
0.250000 0.000000 0.236064 As
0.250000 0.500000 0.236064 As
0.750000 0.000000 0.236064 As
0.750000 0.500000 0.236064 As
0.000000 0.250000 0.298167 As
0.000000 0.750000 0.298167 As
0.500000 0.250000 0.298167 As
0.500000 0.750000 0.298167 As
