Mn6 In12 Ni12 As6
1.0
0.000000 4.283936 0.000000
4.283936 0.000000 -0.000000
-0.000000 0.000000 -74.720925
Mn In Ni As
6 12 12 6
direct
0.000000 -0.000000 0.282247 Mn
0.500000 0.500000 0.241707 Mn
0.000000 -0.000000 0.363326 Mn
0.500000 0.500000 0.322786 Mn
0.000000 -0.000000 0.444405 Mn
0.500000 0.500000 0.403865 Mn
0.000000 0.500000 0.040540 In
0.500000 0.500000 1.000000 In
0.000000 0.500000 0.121621 In
0.500000 0.000000 0.081080 In
0.000000 0.500000 0.202701 In
0.500000 0.000000 0.162161 In
0.500000 0.500000 0.282247 In
0.000000 -0.000000 0.241707 In
0.500000 0.500000 0.363326 In
0.000000 -0.000000 0.322786 In
0.500000 0.500000 0.444405 In
0.000000 -0.000000 0.403865 In
0.500000 -0.000000 0.261977 Ni
0.000000 0.500000 0.261977 Ni
0.000000 0.500000 0.302517 Ni
0.500000 -0.000000 0.302517 Ni
0.500000 -0.000000 0.343056 Ni
0.000000 0.500000 0.343056 Ni
0.000000 0.500000 0.383596 Ni
0.500000 -0.000000 0.383596 Ni
0.500000 -0.000000 0.424135 Ni
0.000000 0.500000 0.424135 Ni
0.000000 0.500000 0.464675 Ni
0.500000 -0.000000 0.464675 Ni
0.000000 0.000000 0.060810 As
0.500000 0.500000 0.020270 As
0.000000 0.000000 0.141891 As
0.500000 0.500000 0.101350 As
0.000000 0.000000 0.222971 As
0.500000 0.500000 0.182431 As
