Mn150 Ga140 As290
1.0
0.000000 55.964320 0.000000
5.653250 -0.000000 -0.000000
-0.000000 0.000000 -65.030171
Mn Ga As
150 140 290
direct
0.964442 -0.000000 0.323891 Mn
0.897775 -0.000000 0.323891 Mn
0.831109 -0.000000 0.323891 Mn
0.764442 -0.000000 0.323891 Mn
0.697775 -0.000000 0.323891 Mn
0.631109 -0.000000 0.323891 Mn
0.564442 -0.000000 0.323891 Mn
0.497775 -0.000000 0.323891 Mn
0.431109 -0.000000 0.323891 Mn
0.364442 -0.000000 0.323891 Mn
0.297775 -0.000000 0.323891 Mn
0.231109 -0.000000 0.323891 Mn
0.164442 -0.000000 0.323891 Mn
0.097775 -0.000000 0.323891 Mn
0.031109 -0.000000 0.323891 Mn
0.964442 0.500000 0.323891 Mn
0.897775 0.500000 0.323891 Mn
0.831109 0.500000 0.323891 Mn
0.764442 0.500000 0.323891 Mn
0.697775 0.500000 0.323891 Mn
0.631109 0.500000 0.323891 Mn
0.564442 0.500000 0.323891 Mn
0.497775 0.500000 0.323891 Mn
0.431109 0.500000 0.323891 Mn
0.364442 0.500000 0.323891 Mn
0.297775 0.500000 0.323891 Mn
0.231109 0.500000 0.323891 Mn
0.164442 0.500000 0.323891 Mn
0.097775 0.500000 0.323891 Mn
0.031109 0.500000 0.323891 Mn
0.997775 -0.000000 0.373457 Mn
0.931109 -0.000000 0.373457 Mn
0.864442 -0.000000 0.373457 Mn
0.797775 -0.000000 0.373457 Mn
0.731109 -0.000000 0.373457 Mn
0.664442 -0.000000 0.373457 Mn
0.597775 -0.000000 0.373457 Mn
0.531109 -0.000000 0.373457 Mn
0.464442 -0.000000 0.373457 Mn
0.397775 -0.000000 0.373457 Mn
0.331109 -0.000000 0.373457 Mn
0.264442 -0.000000 0.373457 Mn
0.197775 -0.000000 0.373457 Mn
0.131109 -0.000000 0.373457 Mn
0.064442 -0.000000 0.373457 Mn
0.997775 0.500000 0.373457 Mn
0.931109 0.500000 0.373457 Mn
0.864442 0.500000 0.373457 Mn
0.797775 0.500000 0.373457 Mn
0.731109 0.500000 0.373457 Mn
0.664442 0.500000 0.373457 Mn
0.597775 0.500000 0.373457 Mn
0.531109 0.500000 0.373457 Mn
0.464442 0.500000 0.373457 Mn
0.397775 0.500000 0.373457 Mn
0.331109 0.500000 0.373457 Mn
0.264442 0.500000 0.373457 Mn
0.197775 0.500000 0.373457 Mn
0.131109 0.500000 0.373457 Mn
0.064442 0.500000 0.373457 Mn
0.964442 -0.000000 0.423024 Mn
0.897775 -0.000000 0.423024 Mn
0.831109 -0.000000 0.423024 Mn
0.764442 -0.000000 0.423024 Mn
0.697775 -0.000000 0.423024 Mn
0.631109 -0.000000 0.423024 Mn
0.564442 -0.000000 0.423024 Mn
0.497775 -0.000000 0.423024 Mn
0.431109 -0.000000 0.423024 Mn
0.364442 -0.000000 0.423024 Mn
0.297775 -0.000000 0.423024 Mn
0.231109 -0.000000 0.423024 Mn
0.164442 -0.000000 0.423024 Mn
0.097775 -0.000000 0.423024 Mn
0.031109 -0.000000 0.423024 Mn
0.964442 0.500000 0.423024 Mn
0.897775 0.500000 0.423024 Mn
0.831109 0.500000 0.423024 Mn
0.764442 0.500000 0.423024 Mn
0.697775 0.500000 0.423024 Mn
0.631109 0.500000 0.423024 Mn
0.564442 0.500000 0.423024 Mn
0.497775 0.500000 0.423024 Mn
0.431109 0.500000 0.423024 Mn
0.364442 0.500000 0.423024 Mn
0.297775 0.500000 0.423024 Mn
0.231109 0.500000 0.423024 Mn
0.164442 0.500000 0.423024 Mn
0.097775 0.500000 0.423024 Mn
0.031109 0.500000 0.423024 Mn
0.997775 -0.000000 0.472591 Mn
0.931109 -0.000000 0.472591 Mn
0.864442 -0.000000 0.472591 Mn
0.797775 -0.000000 0.472591 Mn
0.731109 -0.000000 0.472591 Mn
0.664442 -0.000000 0.472591 Mn
0.597775 -0.000000 0.472591 Mn
0.531109 -0.000000 0.472591 Mn
0.464442 -0.000000 0.472591 Mn
0.397775 -0.000000 0.472591 Mn
0.331109 -0.000000 0.472591 Mn
0.264442 -0.000000 0.472591 Mn
0.197775 -0.000000 0.472591 Mn
0.131109 -0.000000 0.472591 Mn
0.064442 -0.000000 0.472591 Mn
0.997775 0.500000 0.472591 Mn
0.931109 0.500000 0.472591 Mn
0.864442 0.500000 0.472591 Mn
0.797775 0.500000 0.472591 Mn
0.731109 0.500000 0.472591 Mn
0.664442 0.500000 0.472591 Mn
0.597775 0.500000 0.472591 Mn
0.531109 0.500000 0.472591 Mn
0.464442 0.500000 0.472591 Mn
0.397775 0.500000 0.472591 Mn
0.331109 0.500000 0.472591 Mn
0.264442 0.500000 0.472591 Mn
0.197775 0.500000 0.472591 Mn
0.131109 0.500000 0.472591 Mn
0.064442 0.500000 0.472591 Mn
0.964442 0.000000 0.522158 Mn
0.897775 0.000000 0.522158 Mn
0.831109 0.000000 0.522158 Mn
0.764442 0.000000 0.522158 Mn
0.697775 0.000000 0.522158 Mn
0.631109 0.000000 0.522158 Mn
0.564442 0.000000 0.522158 Mn
0.497775 0.000000 0.522158 Mn
0.431109 0.000000 0.522158 Mn
0.364442 0.000000 0.522158 Mn
0.297775 0.000000 0.522158 Mn
0.231109 0.000000 0.522158 Mn
0.164442 0.000000 0.522158 Mn
0.097775 0.000000 0.522158 Mn
0.031109 0.000000 0.522158 Mn
0.964442 0.500000 0.522158 Mn
0.897775 0.500000 0.522158 Mn
0.831109 0.500000 0.522158 Mn
0.764442 0.500000 0.522158 Mn
0.697775 0.500000 0.522158 Mn
0.631109 0.500000 0.522158 Mn
0.564442 0.500000 0.522158 Mn
0.497775 0.500000 0.522158 Mn
0.431109 0.500000 0.522158 Mn
0.364442 0.500000 0.522158 Mn
0.297775 0.500000 0.522158 Mn
0.231109 0.500000 0.522158 Mn
0.164442 0.500000 0.522158 Mn
0.097775 0.500000 0.522158 Mn
0.031109 0.500000 0.522158 Mn
0.892857 0.250000 0.030735 Ga
0.750000 0.250000 0.030735 Ga
0.607143 0.250000 0.030735 Ga
0.464286 0.250000 0.030735 Ga
0.321429 0.250000 0.030735 Ga
0.178571 0.250000 0.030735 Ga
0.035714 0.250000 0.030735 Ga
0.964286 0.250000 0.030735 Ga
0.821429 0.250000 0.030735 Ga
0.678571 0.250000 0.030735 Ga
0.535714 0.250000 0.030735 Ga
0.392857 0.250000 0.030735 Ga
0.250000 0.250000 0.030735 Ga
0.107143 0.250000 0.030735 Ga
0.928571 0.750000 1.000000 Ga
0.785714 0.750000 1.000000 Ga
0.642857 0.750000 1.000000 Ga
0.500000 0.750000 1.000000 Ga
0.357143 0.750000 1.000000 Ga
0.214286 0.750000 1.000000 Ga
0.071429 0.750000 1.000000 Ga
0.857143 0.750000 1.000000 Ga
0.714286 0.750000 1.000000 Ga
0.571429 0.750000 1.000000 Ga
0.428571 0.750000 1.000000 Ga
0.285714 0.750000 1.000000 Ga
0.142857 0.750000 1.000000 Ga
0.000000 0.750000 1.000000 Ga
0.964286 0.250000 0.092206 Ga
0.821429 0.250000 0.092206 Ga
0.678571 0.250000 0.092206 Ga
0.535714 0.250000 0.092206 Ga
0.392857 0.250000 0.092206 Ga
0.250000 0.250000 0.092206 Ga
0.107143 0.250000 0.092206 Ga
0.892857 0.250000 0.092206 Ga
0.750000 0.250000 0.092206 Ga
0.607143 0.250000 0.092206 Ga
0.464286 0.250000 0.092206 Ga
0.321429 0.250000 0.092206 Ga
0.178571 0.250000 0.092206 Ga
0.035714 0.250000 0.092206 Ga
0.857143 0.750000 0.061471 Ga
0.714286 0.750000 0.061471 Ga
0.571429 0.750000 0.061471 Ga
0.428571 0.750000 0.061471 Ga
0.285714 0.750000 0.061471 Ga
0.142857 0.750000 0.061471 Ga
0.000000 0.750000 0.061471 Ga
0.928571 0.750000 0.061471 Ga
0.785714 0.750000 0.061471 Ga
0.642857 0.750000 0.061471 Ga
0.500000 0.750000 0.061471 Ga
0.357143 0.750000 0.061471 Ga
0.214286 0.750000 0.061471 Ga
0.071429 0.750000 0.061471 Ga
0.892857 0.250000 0.153677 Ga
0.750000 0.250000 0.153677 Ga
0.607143 0.250000 0.153677 Ga
0.464286 0.250000 0.153677 Ga
0.321429 0.250000 0.153677 Ga
0.178571 0.250000 0.153677 Ga
0.035714 0.250000 0.153677 Ga
0.964286 0.250000 0.153677 Ga
0.821429 0.250000 0.153677 Ga
0.678571 0.250000 0.153677 Ga
0.535714 0.250000 0.153677 Ga
0.392857 0.250000 0.153677 Ga
0.250000 0.250000 0.153677 Ga
0.107143 0.250000 0.153677 Ga
0.928571 0.750000 0.122941 Ga
0.785714 0.750000 0.122941 Ga
0.642857 0.750000 0.122941 Ga
0.500000 0.750000 0.122941 Ga
0.357143 0.750000 0.122941 Ga
0.214286 0.750000 0.122941 Ga
0.071429 0.750000 0.122941 Ga
0.000000 0.750000 0.122941 Ga
0.857143 0.750000 0.122941 Ga
0.714286 0.750000 0.122941 Ga
0.571429 0.750000 0.122941 Ga
0.428571 0.750000 0.122941 Ga
0.285714 0.750000 0.122941 Ga
0.142857 0.750000 0.122941 Ga
0.964286 0.250000 0.215148 Ga
0.821429 0.250000 0.215148 Ga
0.678571 0.250000 0.215148 Ga
0.535714 0.250000 0.215148 Ga
0.392857 0.250000 0.215148 Ga
0.250000 0.250000 0.215148 Ga
0.107143 0.250000 0.215148 Ga
0.892857 0.250000 0.215148 Ga
0.750000 0.250000 0.215148 Ga
0.607143 0.250000 0.215148 Ga
0.464286 0.250000 0.215148 Ga
0.321429 0.250000 0.215148 Ga
0.178571 0.250000 0.215148 Ga
0.035714 0.250000 0.215148 Ga
0.857143 0.750000 0.184412 Ga
0.714286 0.750000 0.184412 Ga
0.571429 0.750000 0.184412 Ga
0.428571 0.750000 0.184412 Ga
0.285714 0.750000 0.184412 Ga
0.142857 0.750000 0.184412 Ga
0.000000 0.750000 0.184412 Ga
0.928571 0.750000 0.184412 Ga
0.785714 0.750000 0.184412 Ga
0.642857 0.750000 0.184412 Ga
0.500000 0.750000 0.184412 Ga
0.357143 0.750000 0.184412 Ga
0.214286 0.750000 0.184412 Ga
0.071429 0.750000 0.184412 Ga
0.892857 0.250000 0.276618 Ga
0.750000 0.250000 0.276618 Ga
0.607143 0.250000 0.276618 Ga
0.464286 0.250000 0.276618 Ga
0.321429 0.250000 0.276618 Ga
0.178571 0.250000 0.276618 Ga
0.035714 0.250000 0.276618 Ga
0.964286 0.250000 0.276618 Ga
0.821429 0.250000 0.276618 Ga
0.678571 0.250000 0.276618 Ga
0.535714 0.250000 0.276618 Ga
0.392857 0.250000 0.276618 Ga
0.250000 0.250000 0.276618 Ga
0.107143 0.250000 0.276618 Ga
0.928571 0.750000 0.245883 Ga
0.785714 0.750000 0.245883 Ga
0.642857 0.750000 0.245883 Ga
0.500000 0.750000 0.245883 Ga
0.357143 0.750000 0.245883 Ga
0.214286 0.750000 0.245883 Ga
0.071429 0.750000 0.245883 Ga
0.000000 0.750000 0.245883 Ga
0.857143 0.750000 0.245883 Ga
0.714286 0.750000 0.245883 Ga
0.571429 0.750000 0.245883 Ga
0.428571 0.750000 0.245883 Ga
0.285714 0.750000 0.245883 Ga
0.142857 0.750000 0.245883 Ga
0.000000 -0.000000 0.030735 As
0.857143 -0.000000 0.030735 As
0.714286 -0.000000 0.030735 As
0.571429 -0.000000 0.030735 As
0.428571 -0.000000 0.030735 As
0.285714 -0.000000 0.030735 As
0.142857 -0.000000 0.030735 As
0.928571 -0.000000 0.030735 As
0.785714 -0.000000 0.030735 As
0.642857 -0.000000 0.030735 As
0.500000 -0.000000 0.030735 As
0.357143 -0.000000 0.030735 As
0.214286 -0.000000 0.030735 As
0.071429 -0.000000 0.030735 As
0.892857 0.500000 1.000000 As
0.750000 0.500000 1.000000 As
0.607143 0.500000 1.000000 As
0.464286 0.500000 1.000000 As
0.321429 0.500000 1.000000 As
0.178571 0.500000 1.000000 As
0.035714 0.500000 1.000000 As
0.964286 0.500000 1.000000 As
0.821429 0.500000 1.000000 As
0.678571 0.500000 1.000000 As
0.535714 0.500000 1.000000 As
0.392857 0.500000 1.000000 As
0.250000 0.500000 1.000000 As
0.107143 0.500000 1.000000 As
0.928571 -0.000000 0.092206 As
0.785714 -0.000000 0.092206 As
0.642857 -0.000000 0.092206 As
0.500000 -0.000000 0.092206 As
0.357143 -0.000000 0.092206 As
0.214286 -0.000000 0.092206 As
0.071429 -0.000000 0.092206 As
0.857143 -0.000000 0.092206 As
0.714286 -0.000000 0.092206 As
0.571429 -0.000000 0.092206 As
0.428571 -0.000000 0.092206 As
0.285714 -0.000000 0.092206 As
0.142857 -0.000000 0.092206 As
0.000000 -0.000000 0.092206 As
0.964286 0.500000 0.061471 As
0.821429 0.500000 0.061471 As
0.678571 0.500000 0.061471 As
0.535714 0.500000 0.061471 As
0.392857 0.500000 0.061471 As
0.250000 0.500000 0.061471 As
0.107143 0.500000 0.061471 As
0.892857 0.500000 0.061471 As
0.750000 0.500000 0.061471 As
0.607143 0.500000 0.061471 As
0.464286 0.500000 0.061471 As
0.321429 0.500000 0.061471 As
0.178571 0.500000 0.061471 As
0.035714 0.500000 0.061471 As
0.000000 0.000000 0.153677 As
0.857143 0.000000 0.153677 As
0.714286 0.000000 0.153677 As
0.571429 0.000000 0.153677 As
0.428571 0.000000 0.153677 As
0.285714 0.000000 0.153677 As
0.142857 0.000000 0.153677 As
0.928571 0.000000 0.153677 As
0.785714 0.000000 0.153677 As
0.642857 0.000000 0.153677 As
0.500000 0.000000 0.153677 As
0.357143 0.000000 0.153677 As
0.214286 0.000000 0.153677 As
0.071429 0.000000 0.153677 As
0.892857 0.500000 0.122941 As
0.750000 0.500000 0.122941 As
0.607143 0.500000 0.122941 As
0.464286 0.500000 0.122941 As
0.321429 0.500000 0.122941 As
0.178571 0.500000 0.122941 As
0.035714 0.500000 0.122941 As
0.964286 0.500000 0.122941 As
0.821429 0.500000 0.122941 As
0.678571 0.500000 0.122941 As
0.535714 0.500000 0.122941 As
0.392857 0.500000 0.122941 As
0.250000 0.500000 0.122941 As
0.107143 0.500000 0.122941 As
0.928571 0.000000 0.215148 As
0.785714 0.000000 0.215148 As
0.642857 0.000000 0.215148 As
0.500000 0.000000 0.215148 As
0.357143 0.000000 0.215148 As
0.214286 0.000000 0.215148 As
0.071429 0.000000 0.215148 As
0.000000 0.000000 0.215148 As
0.857143 0.000000 0.215148 As
0.714286 0.000000 0.215148 As
0.571429 0.000000 0.215148 As
0.428571 0.000000 0.215148 As
0.285714 0.000000 0.215148 As
0.142857 0.000000 0.215148 As
0.964286 0.500000 0.184412 As
0.821429 0.500000 0.184412 As
0.678571 0.500000 0.184412 As
0.535714 0.500000 0.184412 As
0.392857 0.500000 0.184412 As
0.250000 0.500000 0.184412 As
0.107143 0.500000 0.184412 As
0.892857 0.500000 0.184412 As
0.750000 0.500000 0.184412 As
0.607143 0.500000 0.184412 As
0.464286 0.500000 0.184412 As
0.321429 0.500000 0.184412 As
0.178571 0.500000 0.184412 As
0.035714 0.500000 0.184412 As
0.000000 0.000000 0.276618 As
0.857143 0.000000 0.276618 As
0.714286 0.000000 0.276618 As
0.571429 0.000000 0.276618 As
0.428571 0.000000 0.276618 As
0.285714 0.000000 0.276618 As
0.142857 0.000000 0.276618 As
0.928571 0.000000 0.276618 As
0.785714 0.000000 0.276618 As
0.642857 0.000000 0.276618 As
0.500000 0.000000 0.276618 As
0.357143 0.000000 0.276618 As
0.214286 0.000000 0.276618 As
0.071429 0.000000 0.276618 As
0.892857 0.500000 0.245883 As
0.750000 0.500000 0.245883 As
0.607143 0.500000 0.245883 As
0.464286 0.500000 0.245883 As
0.321429 0.500000 0.245883 As
0.178571 0.500000 0.245883 As
0.035714 0.500000 0.245883 As
0.964286 0.500000 0.245883 As
0.821429 0.500000 0.245883 As
0.678571 0.500000 0.245883 As
0.535714 0.500000 0.245883 As
0.392857 0.500000 0.245883 As
0.250000 0.500000 0.245883 As
0.107143 0.500000 0.245883 As
0.997785 0.250000 0.307373 As
0.931118 0.250000 0.307373 As
0.864452 0.250000 0.307373 As
0.797785 0.250000 0.307373 As
0.731118 0.250000 0.307373 As
0.664452 0.250000 0.307373 As
0.597785 0.250000 0.307373 As
0.531118 0.250000 0.307373 As
0.464452 0.250000 0.307373 As
0.397785 0.250000 0.307373 As
0.331118 0.250000 0.307373 As
0.264452 0.250000 0.307373 As
0.197785 0.250000 0.307373 As
0.131118 0.250000 0.307373 As
0.064452 0.250000 0.307373 As
0.997765 0.750000 0.340408 As
0.931099 0.750000 0.340408 As
0.864432 0.750000 0.340408 As
0.797765 0.750000 0.340408 As
0.731099 0.750000 0.340408 As
0.664432 0.750000 0.340408 As
0.597765 0.750000 0.340408 As
0.531099 0.750000 0.340408 As
0.464432 0.750000 0.340408 As
0.397765 0.750000 0.340408 As
0.331099 0.750000 0.340408 As
0.264432 0.750000 0.340408 As
0.197765 0.750000 0.340408 As
0.131099 0.750000 0.340408 As
0.064432 0.750000 0.340408 As
0.964452 0.250000 0.356940 As
0.897785 0.250000 0.356940 As
0.831118 0.250000 0.356940 As
0.764452 0.250000 0.356940 As
0.697785 0.250000 0.356940 As
0.631118 0.250000 0.356940 As
0.564452 0.250000 0.356940 As
0.497785 0.250000 0.356940 As
0.431118 0.250000 0.356940 As
0.364452 0.250000 0.356940 As
0.297785 0.250000 0.356940 As
0.231118 0.250000 0.356940 As
0.164452 0.250000 0.356940 As
0.097785 0.250000 0.356940 As
0.031118 0.250000 0.356940 As
0.964432 0.750000 0.389975 As
0.897765 0.750000 0.389975 As
0.831099 0.750000 0.389975 As
0.764432 0.750000 0.389975 As
0.697765 0.750000 0.389975 As
0.631099 0.750000 0.389975 As
0.564432 0.750000 0.389975 As
0.497765 0.750000 0.389975 As
0.431099 0.750000 0.389975 As
0.364432 0.750000 0.389975 As
0.297765 0.750000 0.389975 As
0.231099 0.750000 0.389975 As
0.164432 0.750000 0.389975 As
0.097765 0.750000 0.389975 As
0.031099 0.750000 0.389975 As
0.997785 0.250000 0.406507 As
0.931118 0.250000 0.406507 As
0.864452 0.250000 0.406507 As
0.797785 0.250000 0.406507 As
0.731118 0.250000 0.406507 As
0.664452 0.250000 0.406507 As
0.597785 0.250000 0.406507 As
0.531118 0.250000 0.406507 As
0.464452 0.250000 0.406507 As
0.397785 0.250000 0.406507 As
0.331118 0.250000 0.406507 As
0.264452 0.250000 0.406507 As
0.197785 0.250000 0.406507 As
0.131118 0.250000 0.406507 As
0.064452 0.250000 0.406507 As
0.997765 0.750000 0.439542 As
0.931099 0.750000 0.439542 As
0.864432 0.750000 0.439542 As
0.797765 0.750000 0.439542 As
0.731099 0.750000 0.439542 As
0.664432 0.750000 0.439542 As
0.597765 0.750000 0.439542 As
0.531099 0.750000 0.439542 As
0.464432 0.750000 0.439542 As
0.397765 0.750000 0.439542 As
0.331099 0.750000 0.439542 As
0.264432 0.750000 0.439542 As
0.197765 0.750000 0.439542 As
0.131099 0.750000 0.439542 As
0.064432 0.750000 0.439542 As
0.964452 0.250000 0.456074 As
0.897785 0.250000 0.456074 As
0.831118 0.250000 0.456074 As
0.764452 0.250000 0.456074 As
0.697785 0.250000 0.456074 As
0.631118 0.250000 0.456074 As
0.564452 0.250000 0.456074 As
0.497785 0.250000 0.456074 As
0.431118 0.250000 0.456074 As
0.364452 0.250000 0.456074 As
0.297785 0.250000 0.456074 As
0.231118 0.250000 0.456074 As
0.164452 0.250000 0.456074 As
0.097785 0.250000 0.456074 As
0.031118 0.250000 0.456074 As
0.964432 0.750000 0.489109 As
0.897765 0.750000 0.489109 As
0.831099 0.750000 0.489109 As
0.764432 0.750000 0.489109 As
0.697765 0.750000 0.489109 As
0.631099 0.750000 0.489109 As
0.564432 0.750000 0.489109 As
0.497765 0.750000 0.489109 As
0.431099 0.750000 0.489109 As
0.364432 0.750000 0.489109 As
0.297765 0.750000 0.489109 As
0.231099 0.750000 0.489109 As
0.164432 0.750000 0.489109 As
0.097765 0.750000 0.489109 As
0.031099 0.750000 0.489109 As
0.997785 0.250000 0.505641 As
0.931118 0.250000 0.505641 As
0.864452 0.250000 0.505641 As
0.797785 0.250000 0.505641 As
0.731118 0.250000 0.505641 As
0.664452 0.250000 0.505641 As
0.597785 0.250000 0.505641 As
0.531118 0.250000 0.505641 As
0.464452 0.250000 0.505641 As
0.397785 0.250000 0.505641 As
0.331118 0.250000 0.505641 As
0.264452 0.250000 0.505641 As
0.197785 0.250000 0.505641 As
0.131118 0.250000 0.505641 As
0.064452 0.250000 0.505641 As
0.997765 0.750000 0.538676 As
0.931099 0.750000 0.538676 As
0.864432 0.750000 0.538676 As
0.797765 0.750000 0.538676 As
0.731099 0.750000 0.538676 As
0.664432 0.750000 0.538676 As
0.597765 0.750000 0.538676 As
0.531099 0.750000 0.538676 As
0.464432 0.750000 0.538676 As
0.397765 0.750000 0.538676 As
0.331099 0.750000 0.538676 As
0.264432 0.750000 0.538676 As
0.197765 0.750000 0.538676 As
0.131099 0.750000 0.538676 As
0.064432 0.750000 0.538676 As
