Al90 In40 As40
1.0
8.567868 0.000000 0.000000
0.000000 8.567868 0.000000
0.000000 0.000000 86.952585
Al In As
90 40 40
direct
0.166667 0.000000 0.675971 Al
0.000000 0.166667 0.699196 Al
0.166667 0.000000 0.722421 Al
0.000000 0.166667 0.745645 Al
0.166667 0.000000 0.768870 Al
0.000000 0.166667 0.792095 Al
0.166667 0.000000 0.815320 Al
0.000000 0.166667 0.838545 Al
0.166667 0.000000 0.861770 Al
0.000000 0.166667 0.884995 Al
0.166667 0.333333 0.675971 Al
0.000000 0.500000 0.699196 Al
0.166667 0.333333 0.722421 Al
0.000000 0.500000 0.745645 Al
0.166667 0.333333 0.768870 Al
0.000000 0.500000 0.792095 Al
0.166667 0.333333 0.815320 Al
0.000000 0.500000 0.838545 Al
0.166667 0.333333 0.861770 Al
0.000000 0.500000 0.884995 Al
0.166667 0.666667 0.675971 Al
0.000000 0.833333 0.699196 Al
0.166667 0.666667 0.722421 Al
0.000000 0.833333 0.745645 Al
0.166667 0.666667 0.768870 Al
0.000000 0.833333 0.792095 Al
0.166667 0.666667 0.815320 Al
0.000000 0.833333 0.838545 Al
0.166667 0.666667 0.861770 Al
0.000000 0.833333 0.884995 Al
0.500000 0.000000 0.675971 Al
0.333333 0.166667 0.699196 Al
0.500000 0.000000 0.722421 Al
0.333333 0.166667 0.745645 Al
0.500000 0.000000 0.768870 Al
0.333333 0.166667 0.792095 Al
0.500000 0.000000 0.815320 Al
0.333333 0.166667 0.838545 Al
0.500000 0.000000 0.861770 Al
0.333333 0.166667 0.884995 Al
0.500000 0.333333 0.675971 Al
0.333333 0.500000 0.699196 Al
0.500000 0.333333 0.722421 Al
0.333333 0.500000 0.745645 Al
0.500000 0.333333 0.768870 Al
0.333333 0.500000 0.792095 Al
0.500000 0.333333 0.815320 Al
0.333333 0.500000 0.838545 Al
0.500000 0.333333 0.861770 Al
0.333333 0.500000 0.884995 Al
0.500000 0.666667 0.675971 Al
0.333333 0.833333 0.699196 Al
0.500000 0.666667 0.722421 Al
0.333333 0.833333 0.745645 Al
0.500000 0.666667 0.768870 Al
0.333333 0.833333 0.792095 Al
0.500000 0.666667 0.815320 Al
0.333333 0.833333 0.838545 Al
0.500000 0.666667 0.861770 Al
0.333333 0.833333 0.884995 Al
0.833333 0.000000 0.675971 Al
0.666667 0.166667 0.699196 Al
0.833333 0.000000 0.722421 Al
0.666667 0.166667 0.745645 Al
0.833333 0.000000 0.768870 Al
0.666667 0.166667 0.792095 Al
0.833333 0.000000 0.815320 Al
0.666667 0.166667 0.838545 Al
0.833333 0.000000 0.861770 Al
0.666667 0.166667 0.884995 Al
0.833333 0.333333 0.675971 Al
0.666667 0.500000 0.699196 Al
0.833333 0.333333 0.722421 Al
0.666667 0.500000 0.745645 Al
0.833333 0.333333 0.768870 Al
0.666667 0.500000 0.792095 Al
0.833333 0.333333 0.815320 Al
0.666667 0.500000 0.838545 Al
0.833333 0.333333 0.861770 Al
0.666667 0.500000 0.884995 Al
0.833333 0.666667 0.675971 Al
0.666667 0.833333 0.699196 Al
0.833333 0.666667 0.722421 Al
0.666667 0.833333 0.745645 Al
0.833333 0.666667 0.768870 Al
0.666667 0.833333 0.792095 Al
0.833333 0.666667 0.815320 Al
0.666667 0.833333 0.838545 Al
0.833333 0.666667 0.861770 Al
0.666667 0.833333 0.884995 Al
0.000000 0.000000 0.428542 In
0.250000 0.250000 0.393704 In
0.000000 0.000000 0.358867 In
0.250000 0.250000 0.324029 In
0.000000 0.000000 0.289192 In
0.250000 0.250000 0.254355 In
0.000000 0.000000 0.219517 In
0.250000 0.250000 0.184680 In
0.000000 0.000000 0.149843 In
0.250000 0.250000 0.115005 In
0.000000 0.500000 0.428542 In
0.250000 0.750000 0.393704 In
0.000000 0.500000 0.358867 In
0.250000 0.750000 0.324029 In
0.000000 0.500000 0.289192 In
0.250000 0.750000 0.254355 In
0.000000 0.500000 0.219517 In
0.250000 0.750000 0.184680 In
0.000000 0.500000 0.149843 In
0.250000 0.750000 0.115005 In
0.500000 0.000000 0.428542 In
0.750000 0.250000 0.393704 In
0.500000 0.000000 0.358867 In
0.750000 0.250000 0.324029 In
0.500000 0.000000 0.289192 In
0.750000 0.250000 0.254355 In
0.500000 0.000000 0.219517 In
0.750000 0.250000 0.184680 In
0.500000 0.000000 0.149843 In
0.750000 0.250000 0.115005 In
0.500000 0.500000 0.428542 In
0.750000 0.750000 0.393704 In
0.500000 0.500000 0.358867 In
0.750000 0.750000 0.324029 In
0.500000 0.500000 0.289192 In
0.750000 0.750000 0.254355 In
0.500000 0.500000 0.219517 In
0.750000 0.750000 0.184680 In
0.500000 0.500000 0.149843 In
0.750000 0.750000 0.115005 In
0.250000 0.000000 0.411123 As
0.000000 0.250000 0.445960 As
0.250000 0.000000 0.341448 As
0.000000 0.250000 0.376286 As
0.250000 0.000000 0.271773 As
0.000000 0.250000 0.306611 As
0.250000 0.000000 0.202099 As
0.000000 0.250000 0.236936 As
0.250000 0.000000 0.132424 As
0.000000 0.250000 0.167261 As
0.250000 0.500000 0.411123 As
0.000000 0.750000 0.445960 As
0.250000 0.500000 0.341448 As
0.000000 0.750000 0.376286 As
0.250000 0.500000 0.271773 As
0.000000 0.750000 0.306611 As
0.250000 0.500000 0.202099 As
0.000000 0.750000 0.236936 As
0.250000 0.500000 0.132424 As
0.000000 0.750000 0.167261 As
0.750000 0.000000 0.411123 As
0.500000 0.250000 0.445960 As
0.750000 0.000000 0.341448 As
0.500000 0.250000 0.376286 As
0.750000 0.000000 0.271773 As
0.500000 0.250000 0.306611 As
0.750000 0.000000 0.202099 As
0.500000 0.250000 0.236936 As
0.750000 0.000000 0.132424 As
0.500000 0.250000 0.167261 As
0.750000 0.500000 0.411123 As
0.500000 0.750000 0.445960 As
0.750000 0.500000 0.341448 As
0.500000 0.750000 0.376286 As
0.750000 0.500000 0.271773 As
0.500000 0.750000 0.306611 As
0.750000 0.500000 0.202099 As
0.500000 0.750000 0.236936 As
0.750000 0.500000 0.132424 As
0.500000 0.750000 0.167261 As
