Al165 In70 As70
1.0
-8.567868 0.000000 0.000000
1.794003 -26.590668 0.000000
0.000000 0.000000 46.143239
Al In As
165 70 70
direct
1.000000 1.000000 0.599591 Al
1.000000 0.666667 0.599591 Al
1.000000 0.333333 0.599591 Al
0.818182 0.606061 0.599591 Al
0.818182 0.272727 0.599591 Al
0.818182 0.939394 0.599591 Al
0.636364 0.545455 0.599591 Al
0.636364 0.212121 0.599591 Al
0.636364 0.878788 0.599591 Al
0.454545 0.484848 0.599591 Al
0.454545 0.151515 0.599591 Al
0.454545 0.818182 0.599591 Al
0.272727 0.424242 0.599591 Al
0.272727 0.090909 0.599591 Al
0.272727 0.757576 0.599591 Al
0.090909 0.363636 0.599591 Al
0.090909 0.030303 0.599591 Al
0.090909 0.696970 0.599591 Al
0.909091 0.303030 0.599591 Al
0.909091 0.969697 0.599591 Al
0.909091 0.636364 0.599591 Al
0.727273 0.242424 0.599591 Al
0.727273 0.909091 0.599591 Al
0.727273 0.575758 0.599591 Al
0.545455 0.181818 0.599591 Al
0.545455 0.848485 0.599591 Al
0.545455 0.515152 0.599591 Al
0.363636 0.121212 0.599591 Al
0.363636 0.787879 0.599591 Al
0.363636 0.454545 0.599591 Al
0.181818 0.060606 0.599591 Al
0.181818 0.727273 0.599591 Al
0.181818 0.393939 0.599591 Al
0.878788 0.404040 0.650127 Al
0.878788 0.070707 0.650127 Al
0.878788 0.737374 0.650127 Al
0.696970 0.010101 0.650127 Al
0.696970 0.676768 0.650127 Al
0.696970 0.343434 0.650127 Al
0.515152 0.949495 0.650127 Al
0.515152 0.616162 0.650127 Al
0.515152 0.282828 0.650127 Al
0.333333 0.888889 0.650127 Al
0.333333 0.555556 0.650127 Al
0.333333 0.222222 0.650127 Al
0.151515 0.828283 0.650127 Al
0.151515 0.494949 0.650127 Al
0.151515 0.161616 0.650127 Al
0.969697 0.767677 0.650127 Al
0.969697 0.434343 0.650127 Al
0.969697 0.101010 0.650127 Al
0.787879 0.707071 0.650127 Al
0.787879 0.373737 0.650127 Al
0.787879 0.040404 0.650127 Al
0.606061 0.646465 0.650127 Al
0.606061 0.313131 0.650127 Al
0.606061 0.979798 0.650127 Al
0.424242 0.585859 0.650127 Al
0.424242 0.252525 0.650127 Al
0.424242 0.919192 0.650127 Al
0.242424 0.525253 0.650127 Al
0.242424 0.191919 0.650127 Al
0.242424 0.858586 0.650127 Al
0.060606 0.464646 0.650127 Al
0.060606 0.131313 0.650127 Al
0.060606 0.797980 0.650127 Al
0.939394 0.202020 0.700662 Al
0.939394 0.868687 0.700662 Al
0.939394 0.535354 0.700662 Al
0.757576 0.808081 0.700662 Al
0.757576 0.474747 0.700662 Al
0.757576 0.141414 0.700662 Al
0.575758 0.747475 0.700662 Al
0.575758 0.414141 0.700662 Al
0.575758 0.080808 0.700662 Al
0.393939 0.686869 0.700662 Al
0.393939 0.353535 0.700662 Al
0.393939 0.020202 0.700662 Al
0.212121 0.626263 0.700662 Al
0.212121 0.292929 0.700662 Al
0.212121 0.959596 0.700662 Al
0.030303 0.565657 0.700662 Al
0.030303 0.232323 0.700662 Al
0.030303 0.898990 0.700662 Al
0.848485 0.505051 0.700662 Al
0.848485 0.171717 0.700662 Al
0.848485 0.838384 0.700662 Al
0.666667 0.444444 0.700662 Al
0.666667 0.111111 0.700662 Al
0.666667 0.777778 0.700662 Al
0.484848 0.383838 0.700662 Al
0.484848 0.050505 0.700662 Al
0.484848 0.717172 0.700662 Al
0.303030 0.323232 0.700662 Al
0.303030 0.989899 0.700662 Al
0.303030 0.656566 0.700662 Al
0.121212 0.262626 0.700662 Al
0.121212 0.929293 0.700662 Al
0.121212 0.595960 0.700662 Al
1.000000 1.000000 0.751198 Al
1.000000 0.666667 0.751198 Al
1.000000 0.333333 0.751198 Al
0.818182 0.606061 0.751198 Al
0.818182 0.272727 0.751198 Al
0.818182 0.939394 0.751198 Al
0.636364 0.545455 0.751198 Al
0.636364 0.212121 0.751198 Al
0.636364 0.878788 0.751198 Al
0.454545 0.484848 0.751198 Al
0.454545 0.151515 0.751198 Al
0.454545 0.818182 0.751198 Al
0.272727 0.424242 0.751198 Al
0.272727 0.090909 0.751198 Al
0.272727 0.757576 0.751198 Al
0.090909 0.363636 0.751198 Al
0.090909 0.030303 0.751198 Al
0.090909 0.696970 0.751198 Al
0.909091 0.303030 0.751198 Al
0.909091 0.969697 0.751198 Al
0.909091 0.636364 0.751198 Al
0.727273 0.242424 0.751198 Al
0.727273 0.909091 0.751198 Al
0.727273 0.575758 0.751198 Al
0.545455 0.181818 0.751198 Al
0.545455 0.848485 0.751198 Al
0.545455 0.515152 0.751198 Al
0.363636 0.121212 0.751198 Al
0.363636 0.787879 0.751198 Al
0.363636 0.454545 0.751198 Al
0.181818 0.060606 0.751198 Al
0.181818 0.727273 0.751198 Al
0.181818 0.393939 0.751198 Al
0.878788 0.404040 0.801734 Al
0.878788 0.070707 0.801734 Al
0.878788 0.737374 0.801734 Al
0.696970 0.010101 0.801734 Al
0.696970 0.676768 0.801734 Al
0.696970 0.343434 0.801734 Al
0.515152 0.949495 0.801734 Al
0.515152 0.616162 0.801734 Al
0.515152 0.282828 0.801734 Al
0.333333 0.888889 0.801734 Al
0.333333 0.555556 0.801734 Al
0.333333 0.222222 0.801734 Al
0.151515 0.828283 0.801734 Al
0.151515 0.494949 0.801734 Al
0.151515 0.161616 0.801734 Al
0.969697 0.767677 0.801734 Al
0.969697 0.434343 0.801734 Al
0.969697 0.101010 0.801734 Al
0.787879 0.707071 0.801734 Al
0.787879 0.373737 0.801734 Al
0.787879 0.040404 0.801734 Al
0.606061 0.646465 0.801734 Al
0.606061 0.313131 0.801734 Al
0.606061 0.979798 0.801734 Al
0.424242 0.585859 0.801734 Al
0.424242 0.252525 0.801734 Al
0.424242 0.919192 0.801734 Al
0.242424 0.525253 0.801734 Al
0.242424 0.191919 0.801734 Al
0.242424 0.858586 0.801734 Al
0.060606 0.464646 0.801734 Al
0.060606 0.131313 0.801734 Al
0.060606 0.797980 0.801734 Al
1.000000 1.000000 0.253034 In
0.714286 0.857143 0.253034 In
0.428571 0.714286 0.253034 In
0.142857 0.571429 0.253034 In
0.857143 0.428571 0.253034 In
0.571429 0.285714 0.253034 In
0.285714 0.142857 0.253034 In
1.000000 0.500000 0.253034 In
0.714286 0.357143 0.253034 In
0.428571 0.214286 0.253034 In
0.142857 0.071429 0.253034 In
0.857143 0.928571 0.253034 In
0.571429 0.785714 0.253034 In
0.285714 0.642857 0.253034 In
0.809524 0.571429 0.328837 In
0.523810 0.428571 0.328837 In
0.238095 0.285714 0.328837 In
0.952381 0.142857 0.328837 In
0.666667 1.000000 0.328837 In
0.380952 0.857143 0.328837 In
0.095238 0.714286 0.328837 In
0.809524 0.071429 0.328837 In
0.523810 0.928571 0.328837 In
0.238095 0.785714 0.328837 In
0.952381 0.642857 0.328837 In
0.666667 0.500000 0.328837 In
0.380952 0.357143 0.328837 In
0.095238 0.214286 0.328837 In
0.904762 0.285714 0.404641 In
0.619048 0.142857 0.404641 In
0.333333 1.000000 0.404641 In
0.047619 0.857143 0.404641 In
0.761905 0.714286 0.404641 In
0.476190 0.571429 0.404641 In
0.190476 0.428571 0.404641 In
0.904762 0.785714 0.404641 In
0.619048 0.642857 0.404641 In
0.333333 0.500000 0.404641 In
0.047619 0.357143 0.404641 In
0.761905 0.214286 0.404641 In
0.476190 0.071429 0.404641 In
0.190476 0.928571 0.404641 In
1.000000 1.000000 0.480444 In
0.714286 0.857143 0.480444 In
0.428571 0.714286 0.480444 In
0.142857 0.571429 0.480444 In
0.857143 0.428571 0.480444 In
0.571429 0.285714 0.480444 In
0.285714 0.142857 0.480444 In
1.000000 0.500000 0.480444 In
0.714286 0.357143 0.480444 In
0.428571 0.214286 0.480444 In
0.142857 0.071429 0.480444 In
0.857143 0.928571 0.480444 In
0.571429 0.785714 0.480444 In
0.285714 0.642857 0.480444 In
0.809524 0.571429 0.556248 In
0.523810 0.428571 0.556248 In
0.238095 0.285714 0.556248 In
0.952381 0.142857 0.556248 In
0.666667 1.000000 0.556248 In
0.380952 0.857143 0.556248 In
0.095238 0.714286 0.556248 In
0.809524 0.071429 0.556248 In
0.523810 0.928571 0.556248 In
0.238095 0.785714 0.556248 In
0.952381 0.642857 0.556248 In
0.666667 0.500000 0.556248 In
0.380952 0.357143 0.556248 In
0.095238 0.214286 0.556248 In
0.904762 0.285714 0.234083 As
0.619048 0.142857 0.234083 As
0.333333 1.000000 0.234083 As
0.047619 0.857143 0.234083 As
0.761905 0.714286 0.234083 As
0.476190 0.571429 0.234083 As
0.190476 0.428571 0.234083 As
0.904762 0.785714 0.234083 As
0.619048 0.642857 0.234083 As
0.333333 0.500000 0.234083 As
0.047619 0.357143 0.234083 As
0.761905 0.214286 0.234083 As
0.476190 0.071429 0.234083 As
0.190476 0.928571 0.234083 As
1.000000 1.000000 0.309886 As
0.714286 0.857143 0.309886 As
0.428571 0.714286 0.309886 As
0.142857 0.571429 0.309886 As
0.857143 0.428571 0.309886 As
0.571429 0.285714 0.309886 As
0.285714 0.142857 0.309886 As
1.000000 0.500000 0.309886 As
0.714286 0.357143 0.309886 As
0.428571 0.214286 0.309886 As
0.142857 0.071429 0.309886 As
0.857143 0.928571 0.309886 As
0.571429 0.785714 0.309886 As
0.285714 0.642857 0.309886 As
0.809524 0.571429 0.385690 As
0.523810 0.428571 0.385690 As
0.238095 0.285714 0.385690 As
0.952381 0.142857 0.385690 As
0.666667 1.000000 0.385690 As
0.380952 0.857143 0.385690 As
0.095238 0.714286 0.385690 As
0.809524 0.071429 0.385690 As
0.523810 0.928571 0.385690 As
0.238095 0.785714 0.385690 As
0.952381 0.642857 0.385690 As
0.666667 0.500000 0.385690 As
0.380952 0.357143 0.385690 As
0.095238 0.214286 0.385690 As
0.904762 0.285714 0.461493 As
0.619048 0.142857 0.461493 As
0.333333 1.000000 0.461493 As
0.047619 0.857143 0.461493 As
0.761905 0.714286 0.461493 As
0.476190 0.571429 0.461493 As
0.190476 0.428571 0.461493 As
0.904762 0.785714 0.461493 As
0.619048 0.642857 0.461493 As
0.333333 0.500000 0.461493 As
0.047619 0.357143 0.461493 As
0.761905 0.214286 0.461493 As
0.476190 0.071429 0.461493 As
0.190476 0.928571 0.461493 As
1.000000 1.000000 0.537297 As
0.714286 0.857143 0.537297 As
0.428571 0.714286 0.537297 As
0.142857 0.571429 0.537297 As
0.857143 0.428571 0.537297 As
0.571429 0.285714 0.537297 As
0.285714 0.142857 0.537297 As
1.000000 0.500000 0.537297 As
0.714286 0.357143 0.537297 As
0.428571 0.214286 0.537297 As
0.142857 0.071429 0.537297 As
0.857143 0.928571 0.537297 As
0.571429 0.785714 0.537297 As
0.285714 0.642857 0.537297 As
