In10 As10
1.0
4.283936 0.000000 0.000000
0.000000 6.058400 0.000000
0.000000 0.000000 39.277711
In As
10 10
direct
0.000000 0.000000 0.745403 In
0.500000 0.500000 0.690869 In
0.000000 0.000000 0.636335 In
0.500000 0.500000 0.581801 In
0.000000 0.000000 0.527267 In
0.500000 0.500000 0.472733 In
0.000000 0.000000 0.418199 In
0.500000 0.500000 0.363665 In
0.000000 0.000000 0.309131 In
0.500000 0.500000 0.254597 In
0.000000 0.750000 0.690869 As
0.500000 0.250000 0.745403 As
0.000000 0.750000 0.581801 As
0.500000 0.250000 0.636335 As
0.000000 0.750000 0.472733 As
0.500000 0.250000 0.527267 As
0.000000 0.750000 0.363665 As
0.500000 0.250000 0.418199 As
0.000000 0.750000 0.254597 As
0.500000 0.250000 0.309131 As
