In20 As20
1.0
8.567871 0.000000 0.000000
4.283936 7.419994 0.000000
0.000000 0.000000 34.865730
In As
20 20
direct
0.000000 1.000000 0.311895 In
0.000000 0.500000 0.311895 In
0.500000 1.000000 0.311895 In
0.500000 0.500000 0.311895 In
0.666667 0.666667 0.412218 In
0.666667 0.166667 0.412218 In
0.166667 0.666667 0.412218 In
0.166667 0.166667 0.412218 In
0.333333 0.333333 0.512540 In
0.333333 0.833333 0.512540 In
0.833333 0.333333 0.512540 In
0.833333 0.833333 0.512540 In
0.000000 1.000000 0.612863 In
0.000000 0.500000 0.612863 In
0.500000 1.000000 0.612863 In
0.500000 0.500000 0.612863 In
0.666667 0.666667 0.713185 In
0.666667 0.166667 0.713185 In
0.166667 0.666667 0.713185 In
0.166667 0.166667 0.713185 In
0.333333 0.333333 0.286815 As
0.333333 0.833333 0.286815 As
0.833333 0.333333 0.286815 As
0.833333 0.833333 0.286815 As
0.000000 1.000000 0.387137 As
0.000000 0.500000 0.387137 As
0.500000 1.000000 0.387137 As
0.500000 0.500000 0.387137 As
0.666667 0.666667 0.487460 As
0.666667 0.166667 0.487460 As
0.166667 0.666667 0.487460 As
0.166667 0.166667 0.487460 As
0.333333 0.333333 0.587782 As
0.333333 0.833333 0.587782 As
0.833333 0.333333 0.587782 As
0.833333 0.833333 0.587782 As
0.000000 1.000000 0.688105 As
0.000000 0.500000 0.688105 As
0.500000 1.000000 0.688105 As
0.500000 0.500000 0.688105 As
