Al45 In20 As20
1.0
4.283934 -7.419991 0.000000
4.283934 7.419991 0.000000
0.000000 0.000000 47.143239
Al In As
45 20 20
direct
0.000000 0.000000 0.608084 Al
0.333333 0.000000 0.608084 Al
0.666667 0.000000 0.608084 Al
0.333333 0.333333 0.608084 Al
0.666667 0.333333 0.608084 Al
1.000000 0.333333 0.608084 Al
0.666667 0.666667 0.608084 Al
1.000000 0.666667 0.608084 Al
0.333333 0.666667 0.608084 Al
0.111111 0.555556 0.657548 Al
0.444444 0.555556 0.657548 Al
0.777778 0.555556 0.657548 Al
0.444444 0.888889 0.657548 Al
0.777778 0.888889 0.657548 Al
0.111111 0.888889 0.657548 Al
0.777778 0.222222 0.657548 Al
0.111111 0.222222 0.657548 Al
0.444444 0.222222 0.657548 Al
0.555556 0.777778 0.707012 Al
0.888889 0.777778 0.707012 Al
0.222222 0.777778 0.707012 Al
0.888889 0.111111 0.707012 Al
0.222222 0.111111 0.707012 Al
0.555556 0.111111 0.707012 Al
0.222222 0.444444 0.707012 Al
0.555556 0.444444 0.707012 Al
0.888889 0.444444 0.707012 Al
0.000000 0.000000 0.756475 Al
0.333333 1.000000 0.756475 Al
0.666667 1.000000 0.756475 Al
0.333333 0.333333 0.756475 Al
0.666667 0.333333 0.756475 Al
0.000000 0.333333 0.756475 Al
0.666667 0.666667 0.756475 Al
0.000000 0.666667 0.756475 Al
0.333333 0.666667 0.756475 Al
0.111111 0.555556 0.805939 Al
0.444444 0.555556 0.805939 Al
0.777778 0.555556 0.805939 Al
0.444444 0.888889 0.805939 Al
0.777778 0.888889 0.805939 Al
0.111111 0.888889 0.805939 Al
0.777778 0.222222 0.805939 Al
0.111111 0.222222 0.805939 Al
0.444444 0.222222 0.805939 Al
0.000000 0.000000 0.247666 In
0.500000 0.000000 0.247666 In
0.500000 0.500000 0.247666 In
1.000000 0.500000 0.247666 In
0.666667 0.333333 0.321862 In
0.166667 0.333333 0.321862 In
0.166667 0.833333 0.321862 In
0.666667 0.833333 0.321862 In
0.333333 0.666667 0.396058 In
0.833333 0.666667 0.396058 In
0.833333 0.166667 0.396058 In
0.333333 0.166667 0.396058 In
0.000000 0.000000 0.470253 In
0.500000 1.000000 0.470253 In
0.500000 0.500000 0.470253 In
0.000000 0.500000 0.470253 In
0.666667 0.333333 0.544449 In
0.166667 0.333333 0.544449 In
0.166667 0.833333 0.544449 In
0.666667 0.833333 0.544449 In
0.333333 0.666667 0.229118 As
0.833333 0.666667 0.229118 As
0.833333 0.166667 0.229118 As
0.333333 0.166667 0.229118 As
0.000000 0.000000 0.303313 As
0.500000 1.000000 0.303313 As
0.500000 0.500000 0.303313 As
0.000000 0.500000 0.303313 As
0.666667 0.333333 0.377509 As
0.166667 0.333333 0.377509 As
0.166667 0.833333 0.377509 As
0.666667 0.833333 0.377509 As
0.333333 0.666667 0.451704 As
0.833333 0.666667 0.451704 As
0.833333 0.166667 0.451704 As
0.333333 0.166667 0.451704 As
0.000000 0.000000 0.525900 As
0.500000 1.000000 0.525900 As
0.500000 0.500000 0.525900 As
0.000000 0.500000 0.525900 As
