In80 As80
1.0
17.135736 0.000000 0.000000
8.567868 14.839983 0.000000
0.000000 0.000000 24.865730
In As
80 80
direct
0.000000 0.000000 0.429338 In
0.000000 0.500000 0.429338 In
0.500000 0.000000 0.429338 In
0.500000 0.500000 0.429338 In
0.000000 0.250000 0.429338 In
0.000000 0.750000 0.429338 In
0.500000 0.250000 0.429338 In
0.500000 0.750000 0.429338 In
0.250000 0.000000 0.429338 In
0.250000 0.500000 0.429338 In
0.750000 0.000000 0.429338 In
0.750000 0.500000 0.429338 In
0.250000 0.250000 0.429338 In
0.250000 0.750000 0.429338 In
0.750000 0.250000 0.429338 In
0.750000 0.750000 0.429338 In
0.333333 0.333333 0.570006 In
0.333333 0.833333 0.570006 In
0.833333 0.333333 0.570006 In
0.833333 0.833333 0.570006 In
0.333333 0.083333 0.570006 In
0.333333 0.583333 0.570006 In
0.833333 0.083333 0.570006 In
0.833333 0.583333 0.570006 In
0.083333 0.333333 0.570006 In
0.083333 0.833333 0.570006 In
0.583333 0.333333 0.570006 In
0.583333 0.833333 0.570006 In
0.083333 0.083333 0.570006 In
0.083333 0.583333 0.570006 In
0.583333 0.083333 0.570006 In
0.583333 0.583333 0.570006 In
0.166667 0.166667 0.710674 In
0.166667 0.666667 0.710674 In
0.666667 0.166667 0.710674 In
0.666667 0.666667 0.710674 In
0.166667 0.416667 0.710674 In
0.166667 0.916667 0.710674 In
0.666667 0.416667 0.710674 In
0.666667 0.916667 0.710674 In
0.416667 0.166667 0.710674 In
0.416667 0.666667 0.710674 In
0.916667 0.166667 0.710674 In
0.916667 0.666667 0.710674 In
0.416667 0.416667 0.710674 In
0.416667 0.916667 0.710674 In
0.916667 0.416667 0.710674 In
0.916667 0.916667 0.710674 In
0.000000 1.000000 0.851343 In
0.000000 0.500000 0.851343 In
0.500000 1.000000 0.851343 In
0.500000 0.500000 0.851343 In
0.000000 0.250000 0.851343 In
0.000000 0.750000 0.851343 In
0.500000 0.250000 0.851343 In
0.500000 0.750000 0.851343 In
0.250000 1.000000 0.851343 In
0.250000 0.500000 0.851343 In
0.750000 1.000000 0.851343 In
0.750000 0.500000 0.851343 In
0.250000 0.250000 0.851343 In
0.250000 0.750000 0.851343 In
0.750000 0.250000 0.851343 In
0.750000 0.750000 0.851343 In
0.333333 0.333333 0.992011 In
0.333333 0.833333 0.992011 In
0.833333 0.333333 0.992011 In
0.833333 0.833333 0.992011 In
0.333333 0.083333 0.992011 In
0.333333 0.583333 0.992011 In
0.833333 0.083333 0.992011 In
0.833333 0.583333 0.992011 In
0.083333 0.333333 0.992011 In
0.083333 0.833333 0.992011 In
0.583333 0.333333 0.992011 In
0.583333 0.833333 0.992011 In
0.083333 0.083333 0.992011 In
0.083333 0.583333 0.992011 In
0.583333 0.083333 0.992011 In
0.583333 0.583333 0.992011 In
0.166667 0.166667 0.394171 As
0.166667 0.666667 0.394171 As
0.666667 0.166667 0.394171 As
0.666667 0.666667 0.394171 As
0.166667 0.416667 0.394171 As
0.166667 0.916667 0.394171 As
0.666667 0.416667 0.394171 As
0.666667 0.916667 0.394171 As
0.416667 0.166667 0.394171 As
0.416667 0.666667 0.394171 As
0.916667 0.166667 0.394171 As
0.916667 0.666667 0.394171 As
0.416667 0.416667 0.394171 As
0.416667 0.916667 0.394171 As
0.916667 0.416667 0.394171 As
0.916667 0.916667 0.394171 As
0.000000 0.000000 0.534839 As
0.000000 0.500000 0.534839 As
0.500000 0.000000 0.534839 As
0.500000 0.500000 0.534839 As
0.000000 0.250000 0.534839 As
0.000000 0.750000 0.534839 As
0.500000 0.250000 0.534839 As
0.500000 0.750000 0.534839 As
0.250000 1.000000 0.534839 As
0.250000 0.500000 0.534839 As
0.750000 1.000000 0.534839 As
0.750000 0.500000 0.534839 As
0.250000 0.250000 0.534839 As
0.250000 0.750000 0.534839 As
0.750000 0.250000 0.534839 As
0.750000 0.750000 0.534839 As
0.333333 0.333333 0.675507 As
0.333333 0.833333 0.675507 As
0.833333 0.333333 0.675507 As
0.833333 0.833333 0.675507 As
0.333333 0.083333 0.675507 As
0.333333 0.583333 0.675507 As
0.833333 0.083333 0.675507 As
0.833333 0.583333 0.675507 As
0.083333 0.333333 0.675507 As
0.083333 0.833333 0.675507 As
0.583333 0.333333 0.675507 As
0.583333 0.833333 0.675507 As
0.083333 0.083333 0.675507 As
0.083333 0.583333 0.675507 As
0.583333 0.083333 0.675507 As
0.583333 0.583333 0.675507 As
0.166667 0.166667 0.816175 As
0.166667 0.666667 0.816175 As
0.666667 0.166667 0.816175 As
0.666667 0.666667 0.816175 As
0.166667 0.416667 0.816175 As
0.166667 0.916667 0.816175 As
0.666667 0.416667 0.816175 As
0.666667 0.916667 0.816175 As
0.416667 0.166667 0.816175 As
0.416667 0.666667 0.816175 As
0.916667 0.166667 0.816175 As
0.916667 0.666667 0.816175 As
0.416667 0.416667 0.816175 As
0.416667 0.916667 0.816175 As
0.916667 0.416667 0.816175 As
0.916667 0.916667 0.816175 As
0.000000 1.000000 0.956844 As
0.000000 0.500000 0.956844 As
0.500000 1.000000 0.956844 As
0.500000 0.500000 0.956844 As
0.000000 0.250000 0.956844 As
0.000000 0.750000 0.956844 As
0.500000 0.250000 0.956844 As
0.500000 0.750000 0.956844 As
0.250000 1.000000 0.956844 As
0.250000 0.500000 0.956844 As
0.750000 1.000000 0.956844 As
0.750000 0.500000 0.956844 As
0.250000 0.250000 0.956844 As
0.250000 0.750000 0.956844 As
0.750000 0.250000 0.956844 As
0.750000 0.750000 0.956844 As
