In10 As10
1.0
4.283936 0.000000 0.000000
0.000000 4.283936 0.000000
0.000000 0.000000 28.777400
In As
10 10
direct
0.000000 0.000000 0.947368 In
0.500000 0.500000 0.842105 In
0.000000 0.000000 0.736842 In
0.500000 0.500000 0.631579 In
0.000000 0.000000 0.526316 In
0.500000 0.500000 0.421053 In
0.000000 0.000000 0.315789 In
0.500000 0.500000 0.210526 In
0.000000 0.000000 0.105263 In
0.500000 0.500000 0.000000 In
0.500000 0.000000 0.894737 As
0.000000 0.500000 1.000000 As
0.500000 0.000000 0.684211 As
0.000000 0.500000 0.789474 As
0.500000 0.000000 0.473684 As
0.000000 0.500000 0.578947 As
0.500000 0.000000 0.263158 As
0.000000 0.500000 0.368421 As
0.500000 0.000000 0.052632 As
0.000000 0.500000 0.157895 As
