Sn40
1.0
9.176832 0.000000 0.000000
0.000000 6.489000 0.000000
0.000000 0.000000 60.647872
Sn
40
direct
-0.000000 0.000000 0.329772 Sn
0.750000 0.500000 0.367601 Sn
0.250000 0.500000 0.367601 Sn
0.500000 0.000000 0.329772 Sn
0.000000 0.750000 0.367601 Sn
0.250000 0.250000 0.329772 Sn
0.750000 0.250000 0.329772 Sn
0.500000 0.750000 0.367601 Sn
0.500000 0.000000 0.405429 Sn
0.250000 0.500000 0.443257 Sn
0.750000 0.500000 0.443257 Sn
0.000000 0.000000 0.405429 Sn
0.500000 0.750000 0.443257 Sn
0.750000 0.250000 0.405429 Sn
0.250000 0.250000 0.405429 Sn
-0.000000 0.750000 0.443257 Sn
-0.000000 0.000000 0.481086 Sn
0.750000 0.500000 0.518914 Sn
0.250000 0.500000 0.518914 Sn
0.500000 0.000000 0.481086 Sn
0.000000 0.750000 0.518914 Sn
0.250000 0.250000 0.481086 Sn
0.750000 0.250000 0.481086 Sn
0.500000 0.750000 0.518914 Sn
0.500000 0.000000 0.556743 Sn
0.250000 0.500000 0.594571 Sn
0.750000 0.500000 0.594571 Sn
-0.000000 0.000000 0.556743 Sn
0.500000 0.750000 0.594571 Sn
0.750000 0.250000 0.556743 Sn
0.250000 0.250000 0.556743 Sn
0.000000 0.750000 0.594571 Sn
0.000000 0.000000 0.632399 Sn
0.750000 0.500000 0.670228 Sn
0.250000 0.500000 0.670228 Sn
0.500000 0.000000 0.632399 Sn
0.000000 0.750000 0.670228 Sn
0.250000 0.250000 0.632399 Sn
0.750000 0.250000 0.632399 Sn
0.500000 0.750000 0.670228 Sn
