Mn10 Ga5 As15
1.0
-2.027693 3.512067 -0.000000
-2.027693 -3.512067 0.000000
0.000000 0.000000 85.137118
Mn Ga As
10 5 15
direct
0.000000 -0.000000 0.244666 Mn
0.000000 -0.000000 0.208978 Mn
0.000000 -0.000000 0.316042 Mn
0.000000 -0.000000 0.280354 Mn
0.000000 -0.000000 0.387418 Mn
0.000000 -0.000000 0.351730 Mn
0.000000 -0.000000 0.458794 Mn
0.000000 -0.000000 0.423106 Mn
-0.000000 0.000000 0.530170 Mn
0.000000 -0.000000 0.494482 Mn
0.000000 -0.000000 0.009723 Ga
0.666667 0.333333 0.048616 Ga
0.333333 0.666667 0.087508 Ga
0.000000 -0.000000 0.126401 Ga
0.666667 0.333333 0.165294 Ga
0.333333 0.666667 1.000000 As
0.000000 -0.000000 0.038893 As
0.666667 0.333333 0.077785 As
0.333333 0.666667 0.116678 As
0.000000 -0.000000 0.155571 As
0.666667 0.333333 0.191134 As
0.333333 0.666667 0.226822 As
0.666667 0.333333 0.262510 As
0.333333 0.666667 0.298198 As
0.666667 0.333333 0.333886 As
0.333333 0.666667 0.369574 As
0.666667 0.333333 0.405262 As
0.333333 0.666667 0.440950 As
0.666667 0.333333 0.476638 As
0.333333 0.666667 0.512326 As
