Mn190 Ga80 As270
1.0
-8.379630 -14.513945 0.000000
-8.379630 14.513945 0.000000
0.000000 0.000000 -85.137118
Mn Ga As
190 80 270
direct
0.894737 0.157895 0.244666 Mn
0.789474 0.315789 0.244666 Mn
0.684211 0.473684 0.244666 Mn
0.578947 0.631579 0.244666 Mn
0.473684 0.789474 0.244666 Mn
0.368421 0.947368 0.244666 Mn
0.263158 0.105263 0.244666 Mn
0.157895 0.263158 0.244666 Mn
0.052632 0.421053 0.244666 Mn
0.947368 0.578947 0.244666 Mn
0.842105 0.736842 0.244666 Mn
0.736842 0.894737 0.244666 Mn
0.631579 0.052632 0.244666 Mn
0.526316 0.210526 0.244666 Mn
0.421053 0.368421 0.244666 Mn
0.315789 0.526316 0.244666 Mn
0.210526 0.684211 0.244666 Mn
0.105263 0.842105 0.244666 Mn
0.000000 0.000000 0.244666 Mn
0.894737 0.157895 0.208978 Mn
0.789474 0.315789 0.208978 Mn
0.684211 0.473684 0.208978 Mn
0.578947 0.631579 0.208978 Mn
0.473684 0.789474 0.208978 Mn
0.368421 0.947368 0.208978 Mn
0.263158 0.105263 0.208978 Mn
0.157895 0.263158 0.208978 Mn
0.052632 0.421053 0.208978 Mn
0.947368 0.578947 0.208978 Mn
0.842105 0.736842 0.208978 Mn
0.736842 0.894737 0.208978 Mn
0.631579 0.052632 0.208978 Mn
0.526316 0.210526 0.208978 Mn
0.421053 0.368421 0.208978 Mn
0.315789 0.526316 0.208978 Mn
0.210526 0.684211 0.208978 Mn
0.105263 0.842105 0.208978 Mn
0.000000 0.000000 0.208978 Mn
0.894737 0.157895 0.316042 Mn
0.789474 0.315789 0.316042 Mn
0.684211 0.473684 0.316042 Mn
0.578947 0.631579 0.316042 Mn
0.473684 0.789474 0.316042 Mn
0.368421 0.947368 0.316042 Mn
0.263158 0.105263 0.316042 Mn
0.157895 0.263158 0.316042 Mn
0.052632 0.421053 0.316042 Mn
0.947368 0.578947 0.316042 Mn
0.842105 0.736842 0.316042 Mn
0.736842 0.894737 0.316042 Mn
0.631579 0.052632 0.316042 Mn
0.526316 0.210526 0.316042 Mn
0.421053 0.368421 0.316042 Mn
0.315789 0.526316 0.316042 Mn
0.210526 0.684211 0.316042 Mn
0.105263 0.842105 0.316042 Mn
0.000000 0.000000 0.316042 Mn
0.894737 0.157895 0.280354 Mn
0.789474 0.315789 0.280354 Mn
0.684211 0.473684 0.280354 Mn
0.578947 0.631579 0.280354 Mn
0.473684 0.789474 0.280354 Mn
0.368421 0.947368 0.280354 Mn
0.263158 0.105263 0.280354 Mn
0.157895 0.263158 0.280354 Mn
0.052632 0.421053 0.280354 Mn
0.947368 0.578947 0.280354 Mn
0.842105 0.736842 0.280354 Mn
0.736842 0.894737 0.280354 Mn
0.631579 0.052632 0.280354 Mn
0.526316 0.210526 0.280354 Mn
0.421053 0.368421 0.280354 Mn
0.315789 0.526316 0.280354 Mn
0.210526 0.684211 0.280354 Mn
0.105263 0.842105 0.280354 Mn
0.000000 0.000000 0.280354 Mn
0.894737 0.157895 0.387418 Mn
0.789474 0.315789 0.387418 Mn
0.684211 0.473684 0.387418 Mn
0.578947 0.631579 0.387418 Mn
0.473684 0.789474 0.387418 Mn
0.368421 0.947368 0.387418 Mn
0.263158 0.105263 0.387418 Mn
0.157895 0.263158 0.387418 Mn
0.052632 0.421053 0.387418 Mn
0.947368 0.578947 0.387418 Mn
0.842105 0.736842 0.387418 Mn
0.736842 0.894737 0.387418 Mn
0.631579 0.052632 0.387418 Mn
0.526316 0.210526 0.387418 Mn
0.421053 0.368421 0.387418 Mn
0.315789 0.526316 0.387418 Mn
0.210526 0.684211 0.387418 Mn
0.105263 0.842105 0.387418 Mn
0.000000 0.000000 0.387418 Mn
0.894737 0.157895 0.351730 Mn
0.789474 0.315789 0.351730 Mn
0.684211 0.473684 0.351730 Mn
0.578947 0.631579 0.351730 Mn
0.473684 0.789474 0.351730 Mn
0.368421 0.947368 0.351730 Mn
0.263158 0.105263 0.351730 Mn
0.157895 0.263158 0.351730 Mn
0.052632 0.421053 0.351730 Mn
0.947368 0.578947 0.351730 Mn
0.842105 0.736842 0.351730 Mn
0.736842 0.894737 0.351730 Mn
0.631579 0.052632 0.351730 Mn
0.526316 0.210526 0.351730 Mn
0.421053 0.368421 0.351730 Mn
0.315789 0.526316 0.351730 Mn
0.210526 0.684211 0.351730 Mn
0.105263 0.842105 0.351730 Mn
0.000000 0.000000 0.351730 Mn
0.894737 0.157895 0.458794 Mn
0.789474 0.315789 0.458794 Mn
0.684211 0.473684 0.458794 Mn
0.578947 0.631579 0.458794 Mn
0.473684 0.789474 0.458794 Mn
0.368421 0.947368 0.458794 Mn
0.263158 0.105263 0.458794 Mn
0.157895 0.263158 0.458794 Mn
0.052632 0.421053 0.458794 Mn
0.947368 0.578947 0.458794 Mn
0.842105 0.736842 0.458794 Mn
0.736842 0.894737 0.458794 Mn
0.631579 0.052632 0.458794 Mn
0.526316 0.210526 0.458794 Mn
0.421053 0.368421 0.458794 Mn
0.315789 0.526316 0.458794 Mn
0.210526 0.684211 0.458794 Mn
0.105263 0.842105 0.458794 Mn
0.000000 0.000000 0.458794 Mn
0.894737 0.157895 0.423106 Mn
0.789474 0.315789 0.423106 Mn
0.684211 0.473684 0.423106 Mn
0.578947 0.631579 0.423106 Mn
0.473684 0.789474 0.423106 Mn
0.368421 0.947368 0.423106 Mn
0.263158 0.105263 0.423106 Mn
0.157895 0.263158 0.423106 Mn
0.052632 0.421053 0.423106 Mn
0.947368 0.578947 0.423106 Mn
0.842105 0.736842 0.423106 Mn
0.736842 0.894737 0.423106 Mn
0.631579 0.052632 0.423106 Mn
0.526316 0.210526 0.423106 Mn
0.421053 0.368421 0.423106 Mn
0.315789 0.526316 0.423106 Mn
0.210526 0.684211 0.423106 Mn
0.105263 0.842105 0.423106 Mn
0.000000 0.000000 0.423106 Mn
0.894737 0.157895 0.530170 Mn
0.789474 0.315789 0.530170 Mn
0.684211 0.473684 0.530170 Mn
0.578947 0.631579 0.530170 Mn
0.473684 0.789474 0.530170 Mn
0.368421 0.947368 0.530170 Mn
0.263158 0.105263 0.530170 Mn
0.157895 0.263158 0.530170 Mn
0.052632 0.421053 0.530170 Mn
0.947368 0.578947 0.530170 Mn
0.842105 0.736842 0.530170 Mn
0.736842 0.894737 0.530170 Mn
0.631579 0.052632 0.530170 Mn
0.526316 0.210526 0.530170 Mn
0.421053 0.368421 0.530170 Mn
0.315789 0.526316 0.530170 Mn
0.210526 0.684211 0.530170 Mn
0.105263 0.842105 0.530170 Mn
0.000000 0.000000 0.530170 Mn
0.894737 0.157895 0.494482 Mn
0.789474 0.315789 0.494482 Mn
0.684211 0.473684 0.494482 Mn
0.578947 0.631579 0.494482 Mn
0.473684 0.789474 0.494482 Mn
0.368421 0.947368 0.494482 Mn
0.263158 0.105263 0.494482 Mn
0.157895 0.263158 0.494482 Mn
0.052632 0.421053 0.494482 Mn
0.947368 0.578947 0.494482 Mn
0.842105 0.736842 0.494482 Mn
0.736842 0.894737 0.494482 Mn
0.631579 0.052632 0.494482 Mn
0.526316 0.210526 0.494482 Mn
0.421053 0.368421 0.494482 Mn
0.315789 0.526316 0.494482 Mn
0.210526 0.684211 0.494482 Mn
0.105263 0.842105 0.494482 Mn
0.000000 0.000000 0.494482 Mn
1.000000 0.250000 0.009723 Ga
0.000000 0.750000 0.009723 Ga
0.500000 0.750000 0.009723 Ga
0.500000 0.250000 0.009723 Ga
0.250000 0.500000 0.009723 Ga
0.250000 0.000000 0.009723 Ga
0.750000 1.000000 0.009723 Ga
0.750000 0.500000 0.009723 Ga
0.250000 0.250000 0.009723 Ga
0.250000 0.750000 0.009723 Ga
0.750000 0.750000 0.009723 Ga
0.750000 0.250000 0.009723 Ga
0.000000 0.000000 0.009723 Ga
1.000000 0.500000 0.009723 Ga
0.500000 0.500000 0.009723 Ga
0.500000 0.000000 0.009723 Ga
0.333333 0.416667 0.048616 Ga
0.333333 0.916667 0.048616 Ga
0.833333 0.916667 0.048616 Ga
0.833333 0.416667 0.048616 Ga
0.083333 0.166667 0.048616 Ga
0.083333 0.666667 0.048616 Ga
0.583333 0.666667 0.048616 Ga
0.583333 0.166667 0.048616 Ga
0.083333 0.416667 0.048616 Ga
0.083333 0.916667 0.048616 Ga
0.583333 0.916667 0.048616 Ga
0.583333 0.416667 0.048616 Ga
0.333333 0.666667 0.048616 Ga
0.333333 0.166667 0.048616 Ga
0.833333 0.166667 0.048616 Ga
0.833333 0.666667 0.048616 Ga
0.166667 0.583333 0.087508 Ga
0.166667 0.083333 0.087508 Ga
0.666667 0.083333 0.087508 Ga
0.666667 0.583333 0.087508 Ga
0.416667 0.833333 0.087508 Ga
0.416667 0.333333 0.087508 Ga
0.916667 0.333333 0.087508 Ga
0.916667 0.833333 0.087508 Ga
0.416667 0.583333 0.087508 Ga
0.416667 0.083333 0.087508 Ga
0.916667 0.083333 0.087508 Ga
0.916667 0.583333 0.087508 Ga
0.166667 0.333333 0.087508 Ga
0.166667 0.833333 0.087508 Ga
0.666667 0.833333 0.087508 Ga
0.666667 0.333333 0.087508 Ga
0.500000 0.750000 0.126401 Ga
0.500000 0.250000 0.126401 Ga
1.000000 0.250000 0.126401 Ga
1.000000 0.750000 0.126401 Ga
0.250000 0.500000 0.126401 Ga
0.250000 0.000000 0.126401 Ga
0.750000 0.000000 0.126401 Ga
0.750000 0.500000 0.126401 Ga
0.250000 0.250000 0.126401 Ga
0.250000 0.750000 0.126401 Ga
0.750000 0.750000 0.126401 Ga
0.750000 0.250000 0.126401 Ga
0.500000 0.500000 0.126401 Ga
0.500000 1.000000 0.126401 Ga
0.000000 0.000000 0.126401 Ga
0.000000 0.500000 0.126401 Ga
0.333333 0.416667 0.165294 Ga
0.333333 0.916667 0.165294 Ga
0.833333 0.916667 0.165294 Ga
0.833333 0.416667 0.165294 Ga
0.083333 0.166667 0.165294 Ga
0.083333 0.666667 0.165294 Ga
0.583333 0.666667 0.165294 Ga
0.583333 0.166667 0.165294 Ga
0.083333 0.416667 0.165294 Ga
0.083333 0.916667 0.165294 Ga
0.583333 0.916667 0.165294 Ga
0.583333 0.416667 0.165294 Ga
0.333333 0.666667 0.165294 Ga
0.333333 0.166667 0.165294 Ga
0.833333 0.166667 0.165294 Ga
0.833333 0.666667 0.165294 Ga
0.166667 0.333333 0.000000 As
0.166667 0.833333 0.000000 As
0.666667 0.833333 0.000000 As
0.666667 0.333333 0.000000 As
0.416667 0.583333 0.000000 As
0.416667 0.083333 0.000000 As
0.916667 0.083333 0.000000 As
0.916667 0.583333 0.000000 As
0.416667 0.833333 0.000000 As
0.416667 0.333333 0.000000 As
0.916667 0.333333 0.000000 As
0.916667 0.833333 0.000000 As
0.166667 0.583333 0.000000 As
0.166667 0.083333 0.000000 As
0.666667 0.083333 0.000000 As
0.666667 0.583333 0.000000 As
0.500000 0.500000 0.038893 As
0.500000 0.000000 0.038893 As
0.000000 0.000000 0.038893 As
1.000000 0.500000 0.038893 As
0.250000 0.250000 0.038893 As
0.250000 0.750000 0.038893 As
0.750000 0.750000 0.038893 As
0.750000 0.250000 0.038893 As
0.250000 0.500000 0.038893 As
0.250000 0.000000 0.038893 As
0.750000 0.000000 0.038893 As
0.750000 0.500000 0.038893 As
0.500000 0.750000 0.038893 As
0.500000 0.250000 0.038893 As
1.000000 0.250000 0.038893 As
1.000000 0.750000 0.038893 As
0.333333 0.666667 0.077785 As
0.333333 0.166667 0.077785 As
0.833333 0.166667 0.077785 As
0.833333 0.666667 0.077785 As
0.083333 0.416667 0.077785 As
0.083333 0.916667 0.077785 As
0.583333 0.916667 0.077785 As
0.583333 0.416667 0.077785 As
0.083333 0.166667 0.077785 As
0.083333 0.666667 0.077785 As
0.583333 0.666667 0.077785 As
0.583333 0.166667 0.077785 As
0.333333 0.416667 0.077785 As
0.333333 0.916667 0.077785 As
0.833333 0.916667 0.077785 As
0.833333 0.416667 0.077785 As
0.166667 0.333333 0.116678 As
0.166667 0.833333 0.116678 As
0.666667 0.833333 0.116678 As
0.666667 0.333333 0.116678 As
0.416667 0.583333 0.116678 As
0.416667 0.083333 0.116678 As
0.916667 0.083333 0.116678 As
0.916667 0.583333 0.116678 As
0.416667 0.833333 0.116678 As
0.416667 0.333333 0.116678 As
0.916667 0.333333 0.116678 As
0.916667 0.833333 0.116678 As
0.166667 0.583333 0.116678 As
0.166667 0.083333 0.116678 As
0.666667 0.083333 0.116678 As
0.666667 0.583333 0.116678 As
0.500000 0.500000 0.155571 As
0.500000 1.000000 0.155571 As
0.000000 0.000000 0.155571 As
0.000000 0.500000 0.155571 As
0.250000 0.250000 0.155571 As
0.250000 0.750000 0.155571 As
0.750000 0.750000 0.155571 As
0.750000 0.250000 0.155571 As
0.250000 0.500000 0.155571 As
0.250000 1.000000 0.155571 As
0.750000 1.000000 0.155571 As
0.750000 0.500000 0.155571 As
0.500000 0.750000 0.155571 As
0.500000 0.250000 0.155571 As
0.000000 0.250000 0.155571 As
0.000000 0.750000 0.155571 As
0.877151 0.017507 0.191134 As
0.771888 0.175402 0.191134 As
0.666667 0.333333 0.191134 As
0.561361 0.491191 0.191134 As
0.456098 0.649086 0.191134 As
0.350914 0.807012 0.191134 As
0.245572 0.964875 0.191134 As
0.140356 0.122849 0.191134 As
0.035125 0.280696 0.191134 As
0.929830 0.438639 0.191134 As
0.824598 0.596486 0.191134 As
0.719304 0.754428 0.191134 As
0.613993 0.912244 0.191134 As
0.508809 0.070170 0.191134 As
0.403514 0.228112 0.191134 As
0.298251 0.386007 0.191134 As
0.192988 0.543902 0.191134 As
0.087756 0.701749 0.191134 As
0.982493 0.859644 0.191134 As
0.754428 0.035125 0.226822 As
0.649165 0.193019 0.226822 As
0.543854 0.350835 0.226822 As
0.438639 0.508809 0.226822 As
0.333333 0.666667 0.226822 As
0.228112 0.824598 0.226822 As
0.122849 0.982493 0.226822 As
0.017507 0.140356 0.226822 As
0.912323 0.298282 0.226822 As
0.806981 0.456146 0.226822 As
0.701718 0.614040 0.226822 As
0.596486 0.771888 0.226822 As
0.491191 0.929830 0.226822 As
0.385960 0.087677 0.226822 As
0.280696 0.245572 0.226822 As
0.175402 0.403514 0.226822 As
0.070170 0.561361 0.226822 As
0.964875 0.719304 0.226822 As
0.859644 0.877151 0.226822 As
0.877151 0.017507 0.262510 As
0.771888 0.175402 0.262510 As
0.666667 0.333333 0.262510 As
0.561361 0.491191 0.262510 As
0.456098 0.649086 0.262510 As
0.350914 0.807012 0.262510 As
0.245572 0.964875 0.262510 As
0.140356 0.122849 0.262510 As
0.035125 0.280696 0.262510 As
0.929830 0.438639 0.262510 As
0.824598 0.596486 0.262510 As
0.719304 0.754428 0.262510 As
0.613993 0.912244 0.262510 As
0.508809 0.070170 0.262510 As
0.403514 0.228112 0.262510 As
0.298251 0.386007 0.262510 As
0.192988 0.543902 0.262510 As
0.087756 0.701749 0.262510 As
0.982493 0.859644 0.262510 As
0.754428 0.035125 0.298198 As
0.649165 0.193019 0.298198 As
0.543854 0.350835 0.298198 As
0.438639 0.508809 0.298198 As
0.333333 0.666667 0.298198 As
0.228112 0.824598 0.298198 As
0.122849 0.982493 0.298198 As
0.017507 0.140356 0.298198 As
0.912323 0.298282 0.298198 As
0.806981 0.456146 0.298198 As
0.701718 0.614040 0.298198 As
0.596486 0.771888 0.298198 As
0.491191 0.929830 0.298198 As
0.385960 0.087677 0.298198 As
0.280696 0.245572 0.298198 As
0.175402 0.403514 0.298198 As
0.070170 0.561361 0.298198 As
0.964875 0.719304 0.298198 As
0.859644 0.877151 0.298198 As
0.877151 0.017507 0.333886 As
0.771888 0.175402 0.333886 As
0.666667 0.333333 0.333886 As
0.561361 0.491191 0.333886 As
0.456098 0.649086 0.333886 As
0.350914 0.807012 0.333886 As
0.245572 0.964875 0.333886 As
0.140356 0.122849 0.333886 As
0.035125 0.280696 0.333886 As
0.929830 0.438639 0.333886 As
0.824598 0.596486 0.333886 As
0.719304 0.754428 0.333886 As
0.613993 0.912244 0.333886 As
0.508809 0.070170 0.333886 As
0.403514 0.228112 0.333886 As
0.298251 0.386007 0.333886 As
0.192988 0.543902 0.333886 As
0.087756 0.701749 0.333886 As
0.982493 0.859644 0.333886 As
0.754428 0.035125 0.369574 As
0.649165 0.193019 0.369574 As
0.543854 0.350835 0.369574 As
0.438639 0.508809 0.369574 As
0.333333 0.666667 0.369574 As
0.228112 0.824598 0.369574 As
0.122849 0.982493 0.369574 As
0.017507 0.140356 0.369574 As
0.912323 0.298282 0.369574 As
0.806981 0.456146 0.369574 As
0.701718 0.614040 0.369574 As
0.596486 0.771888 0.369574 As
0.491191 0.929830 0.369574 As
0.385960 0.087677 0.369574 As
0.280696 0.245572 0.369574 As
0.175402 0.403514 0.369574 As
0.070170 0.561361 0.369574 As
0.964875 0.719304 0.369574 As
0.859644 0.877151 0.369574 As
0.877151 0.017507 0.405262 As
0.771888 0.175402 0.405262 As
0.666667 0.333333 0.405262 As
0.561361 0.491191 0.405262 As
0.456098 0.649086 0.405262 As
0.350914 0.807012 0.405262 As
0.245572 0.964875 0.405262 As
0.140356 0.122849 0.405262 As
0.035125 0.280696 0.405262 As
0.929830 0.438639 0.405262 As
0.824598 0.596486 0.405262 As
0.719304 0.754428 0.405262 As
0.613993 0.912244 0.405262 As
0.508809 0.070170 0.405262 As
0.403514 0.228112 0.405262 As
0.298251 0.386007 0.405262 As
0.192988 0.543902 0.405262 As
0.087756 0.701749 0.405262 As
0.982493 0.859644 0.405262 As
0.754428 0.035125 0.440950 As
0.649165 0.193019 0.440950 As
0.543854 0.350835 0.440950 As
0.438639 0.508809 0.440950 As
0.333333 0.666667 0.440950 As
0.228112 0.824598 0.440950 As
0.122849 0.982493 0.440950 As
0.017507 0.140356 0.440950 As
0.912323 0.298282 0.440950 As
0.806981 0.456146 0.440950 As
0.701718 0.614040 0.440950 As
0.596486 0.771888 0.440950 As
0.491191 0.929830 0.440950 As
0.385960 0.087677 0.440950 As
0.280696 0.245572 0.440950 As
0.175402 0.403514 0.440950 As
0.070170 0.561361 0.440950 As
0.964875 0.719304 0.440950 As
0.859644 0.877151 0.440950 As
0.877151 0.017507 0.476638 As
0.771888 0.175402 0.476638 As
0.666667 0.333333 0.476638 As
0.561361 0.491191 0.476638 As
0.456098 0.649086 0.476638 As
0.350914 0.807012 0.476638 As
0.245572 0.964875 0.476638 As
0.140356 0.122849 0.476638 As
0.035125 0.280696 0.476638 As
0.929830 0.438639 0.476638 As
0.824598 0.596486 0.476638 As
0.719304 0.754428 0.476638 As
0.613993 0.912244 0.476638 As
0.508809 0.070170 0.476638 As
0.403514 0.228112 0.476638 As
0.298251 0.386007 0.476638 As
0.192988 0.543902 0.476638 As
0.087756 0.701749 0.476638 As
0.982493 0.859644 0.476638 As
0.754428 0.035125 0.512326 As
0.649165 0.193019 0.512326 As
0.543854 0.350835 0.512326 As
0.438639 0.508809 0.512326 As
0.333333 0.666667 0.512326 As
0.228112 0.824598 0.512326 As
0.122849 0.982493 0.512326 As
0.017507 0.140356 0.512326 As
0.912323 0.298282 0.512326 As
0.806981 0.456146 0.512326 As
0.701718 0.614040 0.512326 As
0.596486 0.771888 0.512326 As
0.491191 0.929830 0.512326 As
0.385960 0.087677 0.512326 As
0.280696 0.245572 0.512326 As
0.175402 0.403514 0.512326 As
0.070170 0.561361 0.512326 As
0.964875 0.719304 0.512326 As
0.859644 0.877151 0.512326 As
