Mn30 Ga40 As70
1.0
5.653250 0.000000 0.000000
0.000000 11.306500 0.000000
0.000000 0.000000 84.094577
Mn Ga As
30 40 70
direct
1.000000 0.166667 0.371025 Mn
0.000000 0.500000 0.371025 Mn
0.000000 0.833333 0.371025 Mn
0.500000 0.166667 0.371025 Mn
0.500000 0.500000 0.371025 Mn
0.500000 0.833333 0.371025 Mn
1.000000 0.000000 0.409355 Mn
0.000000 0.333333 0.409355 Mn
0.000000 0.666667 0.409355 Mn
0.500000 0.000000 0.409355 Mn
0.500000 0.333333 0.409355 Mn
0.500000 0.666667 0.409355 Mn
1.000000 0.166667 0.447685 Mn
1.000000 0.500000 0.447685 Mn
1.000000 0.833333 0.447685 Mn
0.500000 0.166667 0.447685 Mn
0.500000 0.500000 0.447685 Mn
0.500000 0.833333 0.447685 Mn
1.000000 0.000000 0.486015 Mn
1.000000 0.333333 0.486015 Mn
1.000000 0.666667 0.486015 Mn
0.500000 0.000000 0.486015 Mn
0.500000 0.333333 0.486015 Mn
0.500000 0.666667 0.486015 Mn
1.000000 0.166667 0.524345 Mn
1.000000 0.500000 0.524345 Mn
1.000000 0.833333 0.524345 Mn
0.500000 0.166667 0.524345 Mn
0.500000 0.500000 0.524345 Mn
0.500000 0.833333 0.524345 Mn
0.750000 0.125000 0.050419 Ga
0.750000 0.625000 0.050419 Ga
0.250000 0.375000 0.050419 Ga
0.250000 0.875000 0.050419 Ga
0.250000 0.125000 0.016806 Ga
0.250000 0.625000 0.016806 Ga
0.750000 0.375000 0.016806 Ga
0.750000 0.875000 0.016806 Ga
0.750000 0.125000 0.117644 Ga
0.750000 0.625000 0.117644 Ga
0.250000 0.375000 0.117644 Ga
0.250000 0.875000 0.117644 Ga
0.250000 0.125000 0.084031 Ga
0.250000 0.625000 0.084031 Ga
0.750000 0.375000 0.084031 Ga
0.750000 0.875000 0.084031 Ga
0.750000 0.125000 0.184868 Ga
0.750000 0.625000 0.184868 Ga
0.250000 0.375000 0.184868 Ga
0.250000 0.875000 0.184868 Ga
0.250000 0.125000 0.151256 Ga
0.250000 0.625000 0.151256 Ga
0.750000 0.375000 0.151256 Ga
0.750000 0.875000 0.151256 Ga
0.750000 0.125000 0.252093 Ga
0.750000 0.625000 0.252093 Ga
0.250000 0.375000 0.252093 Ga
0.250000 0.875000 0.252093 Ga
0.250000 0.125000 0.218481 Ga
0.250000 0.625000 0.218481 Ga
0.750000 0.375000 0.218481 Ga
0.750000 0.875000 0.218481 Ga
0.750000 0.125000 0.319318 Ga
0.750000 0.625000 0.319318 Ga
0.250000 0.375000 0.319318 Ga
0.250000 0.875000 0.319318 Ga
0.250000 0.125000 0.285706 Ga
0.250000 0.625000 0.285706 Ga
0.750000 0.375000 0.285706 Ga
0.750000 0.875000 0.285706 Ga
0.000000 1.000000 0.033612 As
1.000000 0.500000 0.033612 As
0.500000 0.250000 0.033612 As
0.500000 0.750000 0.033612 As
0.500000 1.000000 0.000000 As
0.500000 0.500000 0.000000 As
1.000000 0.250000 0.000000 As
0.000000 0.750000 0.000000 As
0.000000 0.000000 0.100837 As
1.000000 0.500000 0.100837 As
0.500000 0.250000 0.100837 As
0.500000 0.750000 0.100837 As
0.500000 0.000000 0.067225 As
0.500000 0.500000 0.067225 As
1.000000 0.250000 0.067225 As
0.000000 0.750000 0.067225 As
0.000000 0.000000 0.168062 As
0.000000 0.500000 0.168062 As
0.500000 0.250000 0.168062 As
0.500000 0.750000 0.168062 As
0.500000 0.000000 0.134450 As
0.500000 0.500000 0.134450 As
0.000000 0.250000 0.134450 As
0.000000 0.750000 0.134450 As
0.000000 0.000000 0.235287 As
0.000000 0.500000 0.235287 As
0.500000 0.250000 0.235287 As
0.500000 0.750000 0.235287 As
0.500000 0.000000 0.201675 As
0.500000 0.500000 0.201675 As
0.000000 0.250000 0.201675 As
0.000000 0.750000 0.201675 As
0.000000 0.000000 0.302512 As
0.000000 0.500000 0.302512 As
0.500000 0.250000 0.302512 As
0.500000 0.750000 0.302512 As
0.500000 0.000000 0.268900 As
0.500000 0.500000 0.268900 As
0.000000 0.250000 0.268900 As
0.000000 0.750000 0.268900 As
0.750000 0.166667 0.345479 As
0.750000 0.500000 0.345479 As
0.750000 0.833333 0.345479 As
0.250000 0.000000 0.358241 As
0.250000 0.333333 0.358241 As
0.250000 0.666667 0.358241 As
0.750000 0.000000 0.383809 As
0.750000 0.333333 0.383809 As
0.750000 0.666667 0.383809 As
0.250000 0.166667 0.396571 As
0.250000 0.500000 0.396571 As
0.250000 0.833333 0.396571 As
0.750000 0.166667 0.422139 As
0.750000 0.500000 0.422139 As
0.750000 0.833333 0.422139 As
0.250000 0.000000 0.434901 As
0.250000 0.333333 0.434901 As
0.250000 0.666667 0.434901 As
0.750000 0.000000 0.460469 As
0.750000 0.333333 0.460469 As
0.750000 0.666667 0.460469 As
0.250000 0.166667 0.473231 As
0.250000 0.500000 0.473231 As
0.250000 0.833333 0.473231 As
0.750000 0.166667 0.498799 As
0.750000 0.500000 0.498799 As
0.750000 0.833333 0.498799 As
0.250000 0.000000 0.511561 As
0.250000 0.333333 0.511561 As
0.250000 0.666667 0.511561 As
