In160 Sn280 Sb160
1.0
-6.479400 36.653021 0.000000
12.958800 -0.000000 -0.000000
-0.000000 0.000000 -40.034029
In Sn Sb
160 280 160
direct
0.812500 0.093750 0.057222 In
0.562500 0.218750 0.057222 In
0.312500 0.343750 0.057222 In
0.062500 0.468750 0.057222 In
0.812500 0.593750 0.057222 In
0.562500 0.718750 0.057222 In
0.312500 0.843750 0.057222 In
0.062500 0.968750 0.057222 In
0.875000 0.812500 0.000000 In
0.625000 0.937500 0.000000 In
0.375000 0.062500 0.000000 In
0.125000 0.187500 0.000000 In
0.875000 0.312500 0.000000 In
0.625000 0.437500 0.000000 In
0.375000 0.562500 0.000000 In
0.125000 0.687500 0.000000 In
0.750000 0.875000 1.000000 In
0.500000 0.000000 1.000000 In
0.250000 0.125000 1.000000 In
0.000000 0.250000 1.000000 In
0.750000 0.375000 1.000000 In
0.500000 0.500000 1.000000 In
0.250000 0.625000 1.000000 In
0.000000 0.750000 1.000000 In
0.937500 0.031250 0.057222 In
0.687500 0.156250 0.057222 In
0.437500 0.281250 0.057222 In
0.187500 0.406250 0.057222 In
0.937500 0.531250 0.057222 In
0.687500 0.656250 0.057222 In
0.437500 0.781250 0.057222 In
0.187500 0.906250 0.057222 In
0.937500 0.031250 0.171665 In
0.687500 0.156250 0.171665 In
0.437500 0.281250 0.171665 In
0.187500 0.406250 0.171665 In
0.937500 0.531250 0.171665 In
0.687500 0.656250 0.171665 In
0.437500 0.781250 0.171665 In
0.187500 0.906250 0.171665 In
0.000000 0.750000 0.114443 In
0.750000 0.875000 0.114443 In
0.500000 -0.000000 0.114443 In
0.250000 0.125000 0.114443 In
0.000000 0.250000 0.114443 In
0.750000 0.375000 0.114443 In
0.500000 0.500000 0.114443 In
0.250000 0.625000 0.114443 In
0.875000 0.812500 0.114443 In
0.625000 0.937500 0.114443 In
0.375000 0.062500 0.114443 In
0.125000 0.187500 0.114443 In
0.875000 0.312500 0.114443 In
0.625000 0.437500 0.114443 In
0.375000 0.562500 0.114443 In
0.125000 0.687500 0.114443 In
0.812500 0.093750 0.171665 In
0.562500 0.218750 0.171665 In
0.312500 0.343750 0.171665 In
0.062500 0.468750 0.171665 In
0.812500 0.593750 0.171665 In
0.562500 0.718750 0.171665 In
0.312500 0.843750 0.171665 In
0.062500 0.968750 0.171665 In
0.812500 0.093750 0.286108 In
0.562500 0.218750 0.286108 In
0.312500 0.343750 0.286108 In
0.062500 0.468750 0.286108 In
0.812500 0.593750 0.286108 In
0.562500 0.718750 0.286108 In
0.312500 0.843750 0.286108 In
0.062500 0.968750 0.286108 In
0.875000 0.812500 0.228887 In
0.625000 0.937500 0.228887 In
0.375000 0.062500 0.228887 In
0.125000 0.187500 0.228887 In
0.875000 0.312500 0.228887 In
0.625000 0.437500 0.228887 In
0.375000 0.562500 0.228887 In
0.125000 0.687500 0.228887 In
0.000000 0.750000 0.228887 In
0.750000 0.875000 0.228887 In
0.500000 0.000000 0.228887 In
0.250000 0.125000 0.228887 In
0.000000 0.250000 0.228887 In
0.750000 0.375000 0.228887 In
0.500000 0.500000 0.228887 In
0.250000 0.625000 0.228887 In
0.937500 0.031250 0.286108 In
0.687500 0.156250 0.286108 In
0.437500 0.281250 0.286108 In
0.187500 0.406250 0.286108 In
0.937500 0.531250 0.286108 In
0.687500 0.656250 0.286108 In
0.437500 0.781250 0.286108 In
0.187500 0.906250 0.286108 In
0.937500 0.031250 0.400552 In
0.687500 0.156250 0.400552 In
0.437500 0.281250 0.400552 In
0.187500 0.406250 0.400552 In
0.937500 0.531250 0.400552 In
0.687500 0.656250 0.400552 In
0.437500 0.781250 0.400552 In
0.187500 0.906250 0.400552 In
0.750000 0.875000 0.343330 In
0.500000 0.000000 0.343330 In
0.250000 0.125000 0.343330 In
0.000000 0.250000 0.343330 In
0.750000 0.375000 0.343330 In
0.500000 0.500000 0.343330 In
0.250000 0.625000 0.343330 In
0.000000 0.750000 0.343330 In
0.875000 0.812500 0.343330 In
0.625000 0.937500 0.343330 In
0.375000 0.062500 0.343330 In
0.125000 0.187500 0.343330 In
0.875000 0.312500 0.343330 In
0.625000 0.437500 0.343330 In
0.375000 0.562500 0.343330 In
0.125000 0.687500 0.343330 In
0.812500 0.093750 0.400552 In
0.562500 0.218750 0.400552 In
0.312500 0.343750 0.400552 In
0.062500 0.468750 0.400552 In
0.812500 0.593750 0.400552 In
0.562500 0.718750 0.400552 In
0.312500 0.843750 0.400552 In
0.062500 0.968750 0.400552 In
0.812500 0.093750 0.514995 In
0.562500 0.218750 0.514995 In
0.312500 0.343750 0.514995 In
0.062500 0.468750 0.514995 In
0.812500 0.593750 0.514995 In
0.562500 0.718750 0.514995 In
0.312500 0.843750 0.514995 In
0.062500 0.968750 0.514995 In
0.875000 0.812500 0.457773 In
0.625000 0.937500 0.457773 In
0.375000 0.062500 0.457773 In
0.125000 0.187500 0.457773 In
0.875000 0.312500 0.457773 In
0.625000 0.437500 0.457773 In
0.375000 0.562500 0.457773 In
0.125000 0.687500 0.457773 In
0.750000 0.875000 0.457773 In
0.500000 0.000000 0.457773 In
0.250000 0.125000 0.457773 In
0.000000 0.250000 0.457773 In
0.750000 0.375000 0.457773 In
0.500000 0.500000 0.457773 In
0.250000 0.625000 0.457773 In
0.000000 0.750000 0.457773 In
0.937500 0.031250 0.514995 In
0.687500 0.156250 0.514995 In
0.437500 0.281250 0.514995 In
0.187500 0.406250 0.514995 In
0.937500 0.531250 0.514995 In
0.687500 0.656250 0.514995 In
0.437500 0.781250 0.514995 In
0.187500 0.906250 0.514995 In
1.000000 1.000000 0.625756 Sn
0.857143 0.857143 0.625756 Sn
0.714286 0.714286 0.625756 Sn
0.571429 0.571429 0.625756 Sn
0.428571 0.428571 0.625756 Sn
0.285714 0.285714 0.625756 Sn
0.142857 0.142857 0.625756 Sn
0.928571 0.428571 0.625756 Sn
0.785714 0.285714 0.625756 Sn
0.642857 0.142857 0.625756 Sn
0.500000 1.000000 0.625756 Sn
0.357143 0.857143 0.625756 Sn
0.214286 0.714286 0.625756 Sn
0.071429 0.571429 0.625756 Sn
0.035714 0.785714 0.564952 Sn
0.892857 0.642857 0.564952 Sn
0.750000 0.500000 0.564952 Sn
0.607143 0.357143 0.564952 Sn
0.464286 0.214286 0.564952 Sn
0.321429 0.071429 0.564952 Sn
0.178571 0.928571 0.564952 Sn
0.964286 0.214286 0.564952 Sn
0.821429 0.071429 0.564952 Sn
0.678571 0.928571 0.564952 Sn
0.535714 0.785714 0.564952 Sn
0.392857 0.642857 0.564952 Sn
0.250000 0.500000 0.564952 Sn
0.107143 0.357143 0.564952 Sn
0.964286 0.714286 0.585220 Sn
0.821429 0.571429 0.585220 Sn
0.678571 0.428571 0.585220 Sn
0.535714 0.285714 0.585220 Sn
0.392857 0.142857 0.585220 Sn
0.250000 0.000000 0.585220 Sn
0.107143 0.857143 0.585220 Sn
0.892857 0.142857 0.585220 Sn
0.750000 0.000000 0.585220 Sn
0.607143 0.857143 0.585220 Sn
0.464286 0.714286 0.585220 Sn
0.321429 0.571429 0.585220 Sn
0.178571 0.428571 0.585220 Sn
0.035714 0.285714 0.585220 Sn
0.928571 0.928571 0.605488 Sn
0.785714 0.785714 0.605488 Sn
0.642857 0.642857 0.605488 Sn
0.500000 0.500000 0.605488 Sn
0.357143 0.357143 0.605488 Sn
0.214286 0.214286 0.605488 Sn
0.071429 0.071429 0.605488 Sn
0.857143 0.357143 0.605488 Sn
0.714286 0.214286 0.605488 Sn
0.571429 0.071429 0.605488 Sn
0.428571 0.928571 0.605488 Sn
0.285714 0.785714 0.605488 Sn
0.142857 0.642857 0.605488 Sn
-0.000000 0.500000 0.605488 Sn
-0.000000 1.000000 0.706828 Sn
0.857143 0.857143 0.706828 Sn
0.714286 0.714286 0.706828 Sn
0.571429 0.571429 0.706828 Sn
0.428571 0.428571 0.706828 Sn
0.285714 0.285714 0.706828 Sn
0.142857 0.142857 0.706828 Sn
0.928571 0.428571 0.706828 Sn
0.785714 0.285714 0.706828 Sn
0.642857 0.142857 0.706828 Sn
0.500000 1.000000 0.706828 Sn
0.357143 0.857143 0.706828 Sn
0.214286 0.714286 0.706828 Sn
0.071429 0.571429 0.706828 Sn
0.035714 0.785714 0.646024 Sn
0.892857 0.642857 0.646024 Sn
0.750000 0.500000 0.646024 Sn
0.607143 0.357143 0.646024 Sn
0.464286 0.214286 0.646024 Sn
0.321429 0.071429 0.646024 Sn
0.178571 0.928571 0.646024 Sn
0.964286 0.214286 0.646024 Sn
0.821429 0.071429 0.646024 Sn
0.678571 0.928571 0.646024 Sn
0.535714 0.785714 0.646024 Sn
0.392857 0.642857 0.646024 Sn
0.250000 0.500000 0.646024 Sn
0.107143 0.357143 0.646024 Sn
0.964286 0.714286 0.666292 Sn
0.821429 0.571429 0.666292 Sn
0.678571 0.428571 0.666292 Sn
0.535714 0.285714 0.666292 Sn
0.392857 0.142857 0.666292 Sn
0.250000 0.000000 0.666292 Sn
0.107143 0.857143 0.666292 Sn
0.892857 0.142857 0.666292 Sn
0.750000 0.000000 0.666292 Sn
0.607143 0.857143 0.666292 Sn
0.464286 0.714286 0.666292 Sn
0.321429 0.571429 0.666292 Sn
0.178571 0.428571 0.666292 Sn
0.035714 0.285714 0.666292 Sn
0.928571 0.928571 0.686560 Sn
0.785714 0.785714 0.686560 Sn
0.642857 0.642857 0.686560 Sn
0.500000 0.500000 0.686560 Sn
0.357143 0.357143 0.686560 Sn
0.214286 0.214286 0.686560 Sn
0.071429 0.071429 0.686560 Sn
0.857143 0.357143 0.686560 Sn
0.714286 0.214286 0.686560 Sn
0.571429 0.071429 0.686560 Sn
0.428571 0.928571 0.686560 Sn
0.285714 0.785714 0.686560 Sn
0.142857 0.642857 0.686560 Sn
-0.000000 0.500000 0.686560 Sn
-0.000000 1.000000 0.787899 Sn
0.857143 0.857143 0.787899 Sn
0.714286 0.714286 0.787899 Sn
0.571429 0.571429 0.787899 Sn
0.428571 0.428571 0.787899 Sn
0.285714 0.285714 0.787899 Sn
0.142857 0.142857 0.787899 Sn
0.928571 0.428571 0.787899 Sn
0.785714 0.285714 0.787899 Sn
0.642857 0.142857 0.787899 Sn
0.500000 1.000000 0.787899 Sn
0.357143 0.857143 0.787899 Sn
0.214286 0.714286 0.787899 Sn
0.071429 0.571429 0.787899 Sn
0.035714 0.785714 0.727096 Sn
0.892857 0.642857 0.727096 Sn
0.750000 0.500000 0.727096 Sn
0.607143 0.357143 0.727096 Sn
0.464286 0.214286 0.727096 Sn
0.321429 0.071429 0.727096 Sn
0.178571 0.928571 0.727096 Sn
0.964286 0.214286 0.727096 Sn
0.821429 0.071429 0.727096 Sn
0.678571 0.928571 0.727096 Sn
0.535714 0.785714 0.727096 Sn
0.392857 0.642857 0.727096 Sn
0.250000 0.500000 0.727096 Sn
0.107143 0.357143 0.727096 Sn
0.964286 0.714286 0.747364 Sn
0.821429 0.571429 0.747364 Sn
0.678571 0.428571 0.747364 Sn
0.535714 0.285714 0.747364 Sn
0.392857 0.142857 0.747364 Sn
0.250000 0.000000 0.747364 Sn
0.107143 0.857143 0.747364 Sn
0.892857 0.142857 0.747364 Sn
0.750000 0.000000 0.747364 Sn
0.607143 0.857143 0.747364 Sn
0.464286 0.714286 0.747364 Sn
0.321429 0.571429 0.747364 Sn
0.178571 0.428571 0.747364 Sn
0.035714 0.285714 0.747364 Sn
0.928571 0.928571 0.767631 Sn
0.785714 0.785714 0.767631 Sn
0.642857 0.642857 0.767631 Sn
0.500000 0.500000 0.767631 Sn
0.357143 0.357143 0.767631 Sn
0.214286 0.214286 0.767631 Sn
0.071429 0.071429 0.767631 Sn
0.857143 0.357143 0.767631 Sn
0.714286 0.214286 0.767631 Sn
0.571429 0.071429 0.767631 Sn
0.428571 0.928571 0.767631 Sn
0.285714 0.785714 0.767631 Sn
0.142857 0.642857 0.767631 Sn
-0.000000 0.500000 0.767631 Sn
-0.000000 1.000000 0.868971 Sn
0.857143 0.857143 0.868971 Sn
0.714286 0.714286 0.868971 Sn
0.571429 0.571429 0.868971 Sn
0.428571 0.428571 0.868971 Sn
0.285714 0.285714 0.868971 Sn
0.142857 0.142857 0.868971 Sn
0.928571 0.428571 0.868971 Sn
0.785714 0.285714 0.868971 Sn
0.642857 0.142857 0.868971 Sn
0.500000 1.000000 0.868971 Sn
0.357143 0.857143 0.868971 Sn
0.214286 0.714286 0.868971 Sn
0.071429 0.571429 0.868971 Sn
0.035714 0.785714 0.808167 Sn
0.892857 0.642857 0.808167 Sn
0.750000 0.500000 0.808167 Sn
0.607143 0.357143 0.808167 Sn
0.464286 0.214286 0.808167 Sn
0.321429 0.071429 0.808167 Sn
0.178571 0.928571 0.808167 Sn
0.964286 0.214286 0.808167 Sn
0.821429 0.071429 0.808167 Sn
0.678571 0.928571 0.808167 Sn
0.535714 0.785714 0.808167 Sn
0.392857 0.642857 0.808167 Sn
0.250000 0.500000 0.808167 Sn
0.107143 0.357143 0.808167 Sn
0.964286 0.714286 0.828435 Sn
0.821429 0.571429 0.828435 Sn
0.678571 0.428571 0.828435 Sn
0.535714 0.285714 0.828435 Sn
0.392857 0.142857 0.828435 Sn
0.250000 0.000000 0.828435 Sn
0.107143 0.857143 0.828435 Sn
0.892857 0.142857 0.828435 Sn
0.750000 0.000000 0.828435 Sn
0.607143 0.857143 0.828435 Sn
0.464286 0.714286 0.828435 Sn
0.321429 0.571429 0.828435 Sn
0.178571 0.428571 0.828435 Sn
0.035714 0.285714 0.828435 Sn
0.928571 0.928571 0.848703 Sn
0.785714 0.785714 0.848703 Sn
0.642857 0.642857 0.848703 Sn
0.500000 0.500000 0.848703 Sn
0.357143 0.357143 0.848703 Sn
0.214286 0.214286 0.848703 Sn
0.071429 0.071429 0.848703 Sn
0.857143 0.357143 0.848703 Sn
0.714286 0.214286 0.848703 Sn
0.571429 0.071429 0.848703 Sn
0.428571 0.928571 0.848703 Sn
0.285714 0.785714 0.848703 Sn
0.142857 0.642857 0.848703 Sn
-0.000000 0.500000 0.848703 Sn
-0.000000 1.000000 0.950043 Sn
0.857143 0.857143 0.950043 Sn
0.714286 0.714286 0.950043 Sn
0.571429 0.571429 0.950043 Sn
0.428571 0.428571 0.950043 Sn
0.285714 0.285714 0.950043 Sn
0.142857 0.142857 0.950043 Sn
0.928571 0.428571 0.950043 Sn
0.785714 0.285714 0.950043 Sn
0.642857 0.142857 0.950043 Sn
0.500000 1.000000 0.950043 Sn
0.357143 0.857143 0.950043 Sn
0.214286 0.714286 0.950043 Sn
0.071429 0.571429 0.950043 Sn
0.035714 0.785714 0.889239 Sn
0.892857 0.642857 0.889239 Sn
0.750000 0.500000 0.889239 Sn
0.607143 0.357143 0.889239 Sn
0.464286 0.214286 0.889239 Sn
0.321429 0.071429 0.889239 Sn
0.178571 0.928571 0.889239 Sn
0.964286 0.214286 0.889239 Sn
0.821429 0.071429 0.889239 Sn
0.678571 0.928571 0.889239 Sn
0.535714 0.785714 0.889239 Sn
0.392857 0.642857 0.889239 Sn
0.250000 0.500000 0.889239 Sn
0.107143 0.357143 0.889239 Sn
0.964286 0.714286 0.909507 Sn
0.821429 0.571429 0.909507 Sn
0.678571 0.428571 0.909507 Sn
0.535714 0.285714 0.909507 Sn
0.392857 0.142857 0.909507 Sn
0.250000 0.000000 0.909507 Sn
0.107143 0.857143 0.909507 Sn
0.892857 0.142857 0.909507 Sn
0.750000 0.000000 0.909507 Sn
0.607143 0.857143 0.909507 Sn
0.464286 0.714286 0.909507 Sn
0.321429 0.571429 0.909507 Sn
0.178571 0.428571 0.909507 Sn
0.035714 0.285714 0.909507 Sn
0.928571 0.928571 0.929775 Sn
0.785714 0.785714 0.929775 Sn
0.642857 0.642857 0.929775 Sn
0.500000 0.500000 0.929775 Sn
0.357143 0.357143 0.929775 Sn
0.214286 0.214286 0.929775 Sn
0.071429 0.071429 0.929775 Sn
0.857143 0.357143 0.929775 Sn
0.714286 0.214286 0.929775 Sn
0.571429 0.071429 0.929775 Sn
0.428571 0.928571 0.929775 Sn
0.285714 0.785714 0.929775 Sn
0.142857 0.642857 0.929775 Sn
-0.000000 0.500000 0.929775 Sn
0.875000 0.937500 0.057222 Sb
0.625000 0.062500 0.057222 Sb
0.375000 0.187500 0.057222 Sb
0.125000 0.312500 0.057222 Sb
0.875000 0.437500 0.057222 Sb
0.625000 0.562500 0.057222 Sb
0.375000 0.687500 0.057222 Sb
0.125000 0.812500 0.057222 Sb
0.937500 0.656250 1.000000 Sb
0.687500 0.781250 1.000000 Sb
0.437500 0.906250 1.000000 Sb
0.187500 0.031250 1.000000 Sb
0.937500 0.156250 1.000000 Sb
0.687500 0.281250 1.000000 Sb
0.437500 0.406250 1.000000 Sb
0.187500 0.531250 1.000000 Sb
0.812500 0.718750 0.000000 Sb
0.562500 0.843750 0.000000 Sb
0.312500 0.968750 0.000000 Sb
0.062500 0.093750 0.000000 Sb
0.812500 0.218750 0.000000 Sb
0.562500 0.343750 0.000000 Sb
0.312500 0.468750 0.000000 Sb
0.062500 0.593750 0.000000 Sb
0.750000 0.000000 0.057222 Sb
0.500000 0.125000 0.057222 Sb
0.250000 0.250000 0.057222 Sb
0.000000 0.375000 0.057222 Sb
0.750000 0.500000 0.057222 Sb
0.500000 0.625000 0.057222 Sb
0.250000 0.750000 0.057222 Sb
0.000000 0.875000 0.057222 Sb
0.750000 1.000000 0.171665 Sb
0.500000 0.125000 0.171665 Sb
0.250000 0.250000 0.171665 Sb
1.000000 0.375000 0.171665 Sb
0.750000 0.500000 0.171665 Sb
0.500000 0.625000 0.171665 Sb
0.250000 0.750000 0.171665 Sb
1.000000 0.875000 0.171665 Sb
0.812500 0.718750 0.114443 Sb
0.562500 0.843750 0.114443 Sb
0.312500 0.968750 0.114443 Sb
0.062500 0.093750 0.114443 Sb
0.812500 0.218750 0.114443 Sb
0.562500 0.343750 0.114443 Sb
0.312500 0.468750 0.114443 Sb
0.062500 0.593750 0.114443 Sb
0.937500 0.656250 0.114443 Sb
0.687500 0.781250 0.114443 Sb
0.437500 0.906250 0.114443 Sb
0.187500 0.031250 0.114443 Sb
0.937500 0.156250 0.114443 Sb
0.687500 0.281250 0.114443 Sb
0.437500 0.406250 0.114443 Sb
0.187500 0.531250 0.114443 Sb
0.875000 0.937500 0.171665 Sb
0.625000 0.062500 0.171665 Sb
0.375000 0.187500 0.171665 Sb
0.125000 0.312500 0.171665 Sb
0.875000 0.437500 0.171665 Sb
0.625000 0.562500 0.171665 Sb
0.375000 0.687500 0.171665 Sb
0.125000 0.812500 0.171665 Sb
0.875000 0.937500 0.286108 Sb
0.625000 0.062500 0.286108 Sb
0.375000 0.187500 0.286108 Sb
0.125000 0.312500 0.286108 Sb
0.875000 0.437500 0.286108 Sb
0.625000 0.562500 0.286108 Sb
0.375000 0.687500 0.286108 Sb
0.125000 0.812500 0.286108 Sb
0.937500 0.656250 0.228887 Sb
0.687500 0.781250 0.228887 Sb
0.437500 0.906250 0.228887 Sb
0.187500 0.031250 0.228887 Sb
0.937500 0.156250 0.228887 Sb
0.687500 0.281250 0.228887 Sb
0.437500 0.406250 0.228887 Sb
0.187500 0.531250 0.228887 Sb
0.812500 0.718750 0.228887 Sb
0.562500 0.843750 0.228887 Sb
0.312500 0.968750 0.228887 Sb
0.062500 0.093750 0.228887 Sb
0.812500 0.218750 0.228887 Sb
0.562500 0.343750 0.228887 Sb
0.312500 0.468750 0.228887 Sb
0.062500 0.593750 0.228887 Sb
0.750000 0.000000 0.286108 Sb
0.500000 0.125000 0.286108 Sb
0.250000 0.250000 0.286108 Sb
0.000000 0.375000 0.286108 Sb
0.750000 0.500000 0.286108 Sb
0.500000 0.625000 0.286108 Sb
0.250000 0.750000 0.286108 Sb
0.000000 0.875000 0.286108 Sb
0.750000 0.000000 0.400552 Sb
0.500000 0.125000 0.400552 Sb
0.250000 0.250000 0.400552 Sb
0.000000 0.375000 0.400552 Sb
0.750000 0.500000 0.400552 Sb
0.500000 0.625000 0.400552 Sb
0.250000 0.750000 0.400552 Sb
0.000000 0.875000 0.400552 Sb
0.812500 0.718750 0.343330 Sb
0.562500 0.843750 0.343330 Sb
0.312500 0.968750 0.343330 Sb
0.062500 0.093750 0.343330 Sb
0.812500 0.218750 0.343330 Sb
0.562500 0.343750 0.343330 Sb
0.312500 0.468750 0.343330 Sb
0.062500 0.593750 0.343330 Sb
0.937500 0.656250 0.343330 Sb
0.687500 0.781250 0.343330 Sb
0.437500 0.906250 0.343330 Sb
0.187500 0.031250 0.343330 Sb
0.937500 0.156250 0.343330 Sb
0.687500 0.281250 0.343330 Sb
0.437500 0.406250 0.343330 Sb
0.187500 0.531250 0.343330 Sb
0.875000 0.937500 0.400552 Sb
0.625000 0.062500 0.400552 Sb
0.375000 0.187500 0.400552 Sb
0.125000 0.312500 0.400552 Sb
0.875000 0.437500 0.400552 Sb
0.625000 0.562500 0.400552 Sb
0.375000 0.687500 0.400552 Sb
0.125000 0.812500 0.400552 Sb
0.875000 0.937500 0.514995 Sb
0.625000 0.062500 0.514995 Sb
0.375000 0.187500 0.514995 Sb
0.125000 0.312500 0.514995 Sb
0.875000 0.437500 0.514995 Sb
0.625000 0.562500 0.514995 Sb
0.375000 0.687500 0.514995 Sb
0.125000 0.812500 0.514995 Sb
0.937500 0.656250 0.457773 Sb
0.687500 0.781250 0.457773 Sb
0.437500 0.906250 0.457773 Sb
0.187500 0.031250 0.457773 Sb
0.937500 0.156250 0.457773 Sb
0.687500 0.281250 0.457773 Sb
0.437500 0.406250 0.457773 Sb
0.187500 0.531250 0.457773 Sb
0.812500 0.718750 0.457773 Sb
0.562500 0.843750 0.457773 Sb
0.312500 0.968750 0.457773 Sb
0.062500 0.093750 0.457773 Sb
0.812500 0.218750 0.457773 Sb
0.562500 0.343750 0.457773 Sb
0.312500 0.468750 0.457773 Sb
0.062500 0.593750 0.457773 Sb
0.750000 0.000000 0.514995 Sb
0.500000 0.125000 0.514995 Sb
0.250000 0.250000 0.514995 Sb
-0.000000 0.375000 0.514995 Sb
0.750000 0.500000 0.514995 Sb
0.500000 0.625000 0.514995 Sb
0.250000 0.750000 0.514995 Sb
-0.000000 0.875000 0.514995 Sb
