In84 Sn160 Sb84 H12
1.0
0.000000 13.744883 0.000000
12.958800 -0.000000 -0.000000
-0.000000 -0.000000 -91.515778
In Sn Sb H
84 160 84 12
direct
0.833333 0.000000 0.375479 In
0.166667 0.000000 0.375479 In
0.500000 0.000000 0.375479 In
0.833333 0.500000 0.375479 In
0.166667 0.500000 0.375479 In
0.500000 0.500000 0.375479 In
0.333333 0.250000 0.350447 In
0.666667 0.250000 0.350447 In
0.000000 0.250000 0.350447 In
0.333333 0.750000 0.350447 In
0.666667 0.750000 0.350447 In
0.000000 0.750000 0.350447 In
0.500000 0.000000 0.325415 In
0.833333 0.000000 0.325415 In
0.166667 0.000000 0.325415 In
0.500000 0.500000 0.325415 In
0.833333 0.500000 0.325415 In
0.166667 0.500000 0.325415 In
0.666667 0.250000 0.300383 In
0.000000 0.250000 0.300383 In
0.333333 0.250000 0.300383 In
0.666667 0.750000 0.300383 In
0.000000 0.750000 0.300383 In
0.333333 0.750000 0.300383 In
0.833333 0.000000 0.275351 In
0.166667 0.000000 0.275351 In
0.500000 0.000000 0.275351 In
0.833333 0.500000 0.275351 In
0.166667 0.500000 0.275351 In
0.500000 0.500000 0.275351 In
0.333333 0.250000 0.250319 In
0.666667 0.250000 0.250319 In
0.000000 0.250000 0.250319 In
0.333333 0.750000 0.250319 In
0.666667 0.750000 0.250319 In
0.000000 0.750000 0.250319 In
0.500000 0.000000 0.225287 In
0.833333 0.000000 0.225287 In
0.166667 0.000000 0.225287 In
0.500000 0.500000 0.225287 In
0.833333 0.500000 0.225287 In
0.166667 0.500000 0.225287 In
0.666667 0.250000 0.200255 In
0.000000 0.250000 0.200255 In
0.333333 0.250000 0.200255 In
0.666667 0.750000 0.200255 In
0.000000 0.750000 0.200255 In
0.333333 0.750000 0.200255 In
0.833333 0.000000 0.175223 In
0.166667 0.000000 0.175223 In
0.500000 0.000000 0.175223 In
0.833333 0.500000 0.175223 In
0.166667 0.500000 0.175223 In
0.500000 0.500000 0.175223 In
0.333333 0.250000 0.150191 In
0.666667 0.250000 0.150191 In
0.000000 0.250000 0.150191 In
0.333333 0.750000 0.150191 In
0.666667 0.750000 0.150191 In
0.000000 0.750000 0.150191 In
0.500000 0.000000 0.125160 In
0.833333 0.000000 0.125160 In
0.166667 0.000000 0.125160 In
0.500000 0.500000 0.125160 In
0.833333 0.500000 0.125160 In
0.166667 0.500000 0.125160 In
0.666667 0.250000 0.100128 In
0.000000 0.250000 0.100128 In
0.333333 0.250000 0.100128 In
0.666667 0.750000 0.100128 In
0.000000 0.750000 0.100128 In
0.333333 0.750000 0.100128 In
0.833333 0.000000 0.075096 In
0.166667 0.000000 0.075096 In
0.500000 0.000000 0.075096 In
0.833333 0.500000 0.075096 In
0.166667 0.500000 0.075096 In
0.500000 0.500000 0.075096 In
0.333333 0.250000 0.050064 In
0.666667 0.250000 0.050064 In
0.000000 0.250000 0.050064 In
0.333333 0.750000 0.050064 In
0.666667 0.750000 0.050064 In
0.000000 0.750000 0.050064 In
0.000000 0.000000 0.672188 Sn
0.600000 0.200000 0.672188 Sn
0.800000 0.600000 0.672188 Sn
0.400000 0.800000 0.672188 Sn
0.200000 0.400000 0.672188 Sn
0.900000 0.800000 0.663321 Sn
0.700000 0.400000 0.663321 Sn
0.500000 0.000000 0.663321 Sn
0.300000 0.600000 0.663321 Sn
0.100000 0.200000 0.663321 Sn
0.100000 0.700000 0.654455 Sn
0.900000 0.300000 0.654455 Sn
0.700000 0.900000 0.654455 Sn
0.500000 0.500000 0.654455 Sn
0.300000 0.100000 0.654455 Sn
0.200000 0.900000 0.645589 Sn
0.000000 0.500000 0.645589 Sn
0.800000 0.100000 0.645589 Sn
0.600000 0.700000 0.645589 Sn
0.400000 0.300000 0.645589 Sn
0.000000 0.000000 0.636723 Sn
0.800000 0.600000 0.636723 Sn
0.600000 0.200000 0.636723 Sn
0.400000 0.800000 0.636723 Sn
0.200000 0.400000 0.636723 Sn
0.900000 0.800000 0.627856 Sn
0.700000 0.400000 0.627856 Sn
0.500000 0.000000 0.627856 Sn
0.300000 0.600000 0.627856 Sn
0.100000 0.200000 0.627856 Sn
0.100000 0.700000 0.618990 Sn
0.900000 0.300000 0.618990 Sn
0.700000 0.900000 0.618990 Sn
0.500000 0.500000 0.618990 Sn
0.300000 0.100000 0.618990 Sn
0.200000 0.900000 0.610124 Sn
0.000000 0.500000 0.610124 Sn
0.800000 0.100000 0.610124 Sn
0.600000 0.700000 0.610124 Sn
0.400000 0.300000 0.610124 Sn
0.000000 0.000000 0.601257 Sn
0.800000 0.600000 0.601257 Sn
0.600000 0.200000 0.601257 Sn
0.400000 0.800000 0.601257 Sn
0.200000 0.400000 0.601257 Sn
0.900000 0.800000 0.592391 Sn
0.700000 0.400000 0.592391 Sn
0.500000 0.000000 0.592391 Sn
0.300000 0.600000 0.592391 Sn
0.100000 0.200000 0.592391 Sn
0.100000 0.700000 0.583525 Sn
0.900000 0.300000 0.583525 Sn
0.700000 0.900000 0.583525 Sn
0.500000 0.500000 0.583525 Sn
0.300000 0.100000 0.583525 Sn
0.200000 0.900000 0.574658 Sn
0.000000 0.500000 0.574658 Sn
0.800000 0.100000 0.574658 Sn
0.600000 0.700000 0.574658 Sn
0.400000 0.300000 0.574658 Sn
0.000000 0.000000 0.565792 Sn
0.800000 0.600000 0.565792 Sn
0.600000 0.200000 0.565792 Sn
0.400000 0.800000 0.565792 Sn
0.200000 0.400000 0.565792 Sn
0.900000 0.800000 0.556926 Sn
0.700000 0.400000 0.556926 Sn
0.500000 0.000000 0.556926 Sn
0.300000 0.600000 0.556926 Sn
0.100000 0.200000 0.556926 Sn
0.100000 0.700000 0.548060 Sn
0.900000 0.300000 0.548060 Sn
0.700000 0.900000 0.548060 Sn
0.500000 0.500000 0.548060 Sn
0.300000 0.100000 0.548060 Sn
0.200000 0.900000 0.539193 Sn
0.000000 0.500000 0.539193 Sn
0.800000 0.100000 0.539193 Sn
0.600000 0.700000 0.539193 Sn
0.400000 0.300000 0.539193 Sn
0.000000 0.000000 0.530327 Sn
0.600000 0.200000 0.530327 Sn
0.800000 0.600000 0.530327 Sn
0.400000 0.800000 0.530327 Sn
0.200000 0.400000 0.530327 Sn
0.500000 0.000000 0.521461 Sn
0.100000 0.200000 0.521461 Sn
0.900000 0.800000 0.521461 Sn
0.700000 0.400000 0.521461 Sn
0.300000 0.600000 0.521461 Sn
0.100000 0.700000 0.512594 Sn
0.900000 0.300000 0.512594 Sn
0.700000 0.900000 0.512594 Sn
0.500000 0.500000 0.512594 Sn
0.300000 0.100000 0.512594 Sn
0.800000 0.100000 0.503728 Sn
0.400000 0.300000 0.503728 Sn
0.200000 0.900000 0.503728 Sn
0.000000 0.500000 0.503728 Sn
0.600000 0.700000 0.503728 Sn
0.000000 0.000000 0.494862 Sn
0.800000 0.600000 0.494862 Sn
0.600000 0.200000 0.494862 Sn
0.200000 0.400000 0.494862 Sn
0.400000 0.800000 0.494862 Sn
0.700000 0.400000 0.485996 Sn
0.500000 0.000000 0.485996 Sn
0.300000 0.600000 0.485996 Sn
0.100000 0.200000 0.485996 Sn
0.900000 0.800000 0.485996 Sn
0.100000 0.700000 0.477129 Sn
0.900000 0.300000 0.477129 Sn
0.700000 0.900000 0.477129 Sn
0.500000 0.500000 0.477129 Sn
0.300000 0.100000 0.477129 Sn
0.200000 0.900000 0.468263 Sn
0.000000 0.500000 0.468263 Sn
0.800000 0.100000 0.468263 Sn
0.600000 0.700000 0.468263 Sn
0.400000 0.300000 0.468263 Sn
0.000000 0.000000 0.459397 Sn
0.800000 0.600000 0.459397 Sn
0.600000 0.200000 0.459397 Sn
0.200000 0.400000 0.459397 Sn
0.400000 0.800000 0.459397 Sn
0.700000 0.400000 0.450530 Sn
0.500000 0.000000 0.450530 Sn
0.300000 0.600000 0.450530 Sn
0.100000 0.200000 0.450530 Sn
0.900000 0.800000 0.450530 Sn
0.100000 0.700000 0.441664 Sn
0.900000 0.300000 0.441664 Sn
0.700000 0.900000 0.441664 Sn
0.500000 0.500000 0.441664 Sn
0.300000 0.100000 0.441664 Sn
0.000000 0.500000 0.432798 Sn
0.800000 0.100000 0.432798 Sn
0.400000 0.300000 0.432798 Sn
0.200000 0.900000 0.432798 Sn
0.600000 0.700000 0.432798 Sn
0.000000 0.000000 0.423932 Sn
0.800000 0.600000 0.423932 Sn
0.600000 0.200000 0.423932 Sn
0.200000 0.400000 0.423932 Sn
0.400000 0.800000 0.423932 Sn
0.900000 0.800000 0.415065 Sn
0.700000 0.400000 0.415065 Sn
0.500000 0.000000 0.415065 Sn
0.300000 0.600000 0.415065 Sn
0.100000 0.200000 0.415065 Sn
0.100000 0.700000 0.406199 Sn
0.900000 0.300000 0.406199 Sn
0.700000 0.900000 0.406199 Sn
0.500000 0.500000 0.406199 Sn
0.300000 0.100000 0.406199 Sn
0.200000 0.900000 0.397333 Sn
0.000000 0.500000 0.397333 Sn
0.800000 0.100000 0.397333 Sn
0.600000 0.700000 0.397333 Sn
0.400000 0.300000 0.397333 Sn
0.333333 0.375000 0.375479 Sb
0.666667 0.375000 0.375479 Sb
0.000000 0.375000 0.375479 Sb
0.333333 0.875000 0.375479 Sb
0.666667 0.875000 0.375479 Sb
0.000000 0.875000 0.375479 Sb
0.500000 0.625000 0.350447 Sb
0.833333 0.625000 0.350447 Sb
0.166667 0.625000 0.350447 Sb
0.500000 0.125000 0.350447 Sb
0.833333 0.125000 0.350447 Sb
0.166667 0.125000 0.350447 Sb
0.666667 0.375000 0.325415 Sb
0.000000 0.375000 0.325415 Sb
0.333333 0.375000 0.325415 Sb
0.666667 0.875000 0.325415 Sb
0.000000 0.875000 0.325415 Sb
0.333333 0.875000 0.325415 Sb
0.833333 0.625000 0.300383 Sb
0.166667 0.625000 0.300383 Sb
0.500000 0.625000 0.300383 Sb
0.833333 0.125000 0.300383 Sb
0.166667 0.125000 0.300383 Sb
0.500000 0.125000 0.300383 Sb
0.333333 0.375000 0.275351 Sb
0.666667 0.375000 0.275351 Sb
0.000000 0.375000 0.275351 Sb
0.333333 0.875000 0.275351 Sb
0.666667 0.875000 0.275351 Sb
0.000000 0.875000 0.275351 Sb
0.500000 0.625000 0.250319 Sb
0.833333 0.625000 0.250319 Sb
0.166667 0.625000 0.250319 Sb
0.500000 0.125000 0.250319 Sb
0.833333 0.125000 0.250319 Sb
0.166667 0.125000 0.250319 Sb
0.666667 0.375000 0.225287 Sb
0.000000 0.375000 0.225287 Sb
0.333333 0.375000 0.225287 Sb
0.666667 0.875000 0.225287 Sb
0.000000 0.875000 0.225287 Sb
0.333333 0.875000 0.225287 Sb
0.833333 0.625000 0.200255 Sb
0.166667 0.625000 0.200255 Sb
0.500000 0.625000 0.200255 Sb
0.833333 0.125000 0.200255 Sb
0.166667 0.125000 0.200255 Sb
0.500000 0.125000 0.200255 Sb
0.333333 0.375000 0.175223 Sb
0.666667 0.375000 0.175223 Sb
0.000000 0.375000 0.175223 Sb
0.333333 0.875000 0.175223 Sb
0.666667 0.875000 0.175223 Sb
0.000000 0.875000 0.175223 Sb
0.500000 0.625000 0.150191 Sb
0.833333 0.625000 0.150191 Sb
0.166667 0.625000 0.150191 Sb
0.500000 0.125000 0.150191 Sb
0.833333 0.125000 0.150191 Sb
0.166667 0.125000 0.150191 Sb
0.666667 0.375000 0.125160 Sb
0.000000 0.375000 0.125160 Sb
0.333333 0.375000 0.125160 Sb
0.666667 0.875000 0.125160 Sb
0.000000 0.875000 0.125160 Sb
0.333333 0.875000 0.125160 Sb
0.833333 0.625000 0.100128 Sb
0.166667 0.625000 0.100128 Sb
0.500000 0.625000 0.100128 Sb
0.833333 0.125000 0.100128 Sb
0.166667 0.125000 0.100128 Sb
0.500000 0.125000 0.100128 Sb
0.333333 0.375000 0.075096 Sb
0.666667 0.375000 0.075096 Sb
0.000000 0.375000 0.075096 Sb
0.333333 0.875000 0.075096 Sb
0.666667 0.875000 0.075096 Sb
0.000000 0.875000 0.075096 Sb
0.500000 0.625000 0.050064 Sb
0.833333 0.625000 0.050064 Sb
0.166667 0.625000 0.050064 Sb
0.500000 0.125000 0.050064 Sb
0.833333 0.125000 0.050064 Sb
0.166667 0.125000 0.050064 Sb
0.500000 0.556834 0.036413 H
0.833333 0.556834 0.036413 H
0.166667 0.556834 0.036413 H
0.500000 0.056834 0.036413 H
0.833333 0.056834 0.036413 H
0.166667 0.056834 0.036413 H
0.333333 0.319369 0.036172 H
0.666667 0.319369 0.036172 H
0.000000 0.319369 0.036172 H
0.333333 0.819369 0.036172 H
0.666667 0.819369 0.036172 H
0.000000 0.819369 0.036172 H
