Al67 In44 As52 H4                       
   1.00000000000000     
    -4.2839320000000001   -7.4199880000000000    0.0000000000000000
    -4.2839320000000001    7.4199880000000000    0.0000000000000000
     0.0000000000000000    0.0000000000000000 -140.7884549999999990
   Al   In   As   H 
    71    40    52     4
Selective dynamics
Direct
  0.0000000000000000  0.6666669999999968  0.6431350000000009   F   F   F
  0.0000000000000000  0.3333330000000032  0.6431350000000009   F   F   F
  0.0000000000000000  0.0000000000000000  0.6431350000000009   F   F   F
  0.6666669999999968  0.3333330000000032  0.6431350000000009   F   F   F
  0.6666669999999968  0.0000000000000000  0.6431350000000009   F   F   F
  0.6666669999999968  0.6666669999999968  0.6431350000000009   F   F   F
  0.3333330000000032  0.0000000000000000  0.6431350000000009   F   F   F
  0.3333330000000032  0.6666669999999968  0.6431350000000009   F   F   F
  0.3333330000000032  0.3333330000000032  0.6431350000000009   F   F   F
  0.2222220000000021  0.4444439999999972  0.6265720000000030   F   F   F
  0.2222220000000021  0.1111110000000011  0.6265720000000030   F   F   F
  0.2222220000000021  0.7777779999999979  0.6265720000000030   F   F   F
  0.8888889999999989  0.1111110000000011  0.6265720000000030   F   F   F
  0.8888889999999989  0.7777779999999979  0.6265720000000030   F   F   F
  0.8888889999999989  0.4444439999999972  0.6265720000000030   F   F   F
  0.5555560000000028  0.7777779999999979  0.6265720000000030   F   F   F
  0.5555560000000028  0.4444439999999972  0.6265720000000030   F   F   F
  0.5555560000000028  0.1111110000000011  0.6265720000000030   F   F   F
  0.4444439999999972  0.8888889999999989  0.6100089999999980   F   F   F
  0.4444439999999972  0.5555560000000028  0.6100089999999980   F   F   F
  0.4444439999999972  0.2222220000000021  0.6100089999999980   F   F   F
  0.1111110000000011  0.5555560000000028  0.6100089999999980   F   F   F
  0.1111110000000011  0.2222220000000021  0.6100089999999980   F   F   F
  0.1111110000000011  0.8888889999999989  0.6100089999999980   F   F   F
  0.7777779999999979  0.2222220000000021  0.6100089999999980   F   F   F
  0.7777779999999979  0.8888889999999989  0.6100089999999980   F   F   F
  0.7777779999999979  0.5555560000000028  0.6100089999999980   F   F   F
  0.6666669999999968  0.3333330000000032  0.5934460000000001   F   F   F
  0.6666669999999968  0.0000000000000000  0.5934460000000001   F   F   F
  0.6666669999999968  0.6666669999999968  0.5934460000000001   F   F   F
  0.3333330000000032  0.0000000000000000  0.5934460000000001   F   F   F
  0.3333330000000032  0.6666669999999968  0.5934460000000001   F   F   F
  0.3333330000000032  0.3333330000000032  0.5934460000000001   F   F   F
  0.0000000000000000  0.6666669999999968  0.5934460000000001   F   F   F
  0.0000000000000000  0.3333330000000032  0.5934460000000001   F   F   F
  0.0000000000000000  0.0000000000000000  0.5934460000000001   F   F   F
  0.2235749999999967  0.4471490000000031  0.5761040000000008   F   F   F
  0.2263710000000003  0.1131859999999989  0.5757249999999985   F   F   F
  0.2235749999999967  0.7764250000000033  0.5761040000000008   F   F   F
  0.8868140000000011  0.1131859999999989  0.5757249999999985   F   F   F
  0.8868140000000011  0.7736289999999997  0.5757249999999985   F   F   F
  0.8861119999999971  0.4430550000000011  0.5750770000000003   F   F   F
  0.5528509999999969  0.7764250000000033  0.5761040000000008   F   F   F
  0.5569449999999989  0.4430550000000011  0.5750770000000003   F   F   F
  0.5569449999999989  0.1138880000000029  0.5750770000000003   F   F   F
  0.4504957504069201  0.9009925008138376  0.5577264831294584   T   T   T
  0.4504957504069201  0.5495042495930800  0.5577264831294584   T   T   T
  0.4461733217811499  0.2230861608905727  0.5558898210378654   T   T   T
  0.0990074991861625  0.5495042495930800  0.5577264831294584   T   T   T
  0.1153795496331162  0.2307580992662278  0.5586859657398328   T   T   T
  0.1153795496331162  0.8846204503668834  0.5586859657398328   T   T   T
  0.7769138391094272  0.2230861608905727  0.5558898210378654   T   T   T
  0.7692419007337723  0.8846204503668834  0.5586859657398328   T   T   T
  0.7769138391094272  0.5538266782188501  0.5558898210378654   T   T   T
  0.0048658296576409  0.6802558185254070  0.5389154769100175   T   T   T
  0.0048658296576409  0.3246100111322340  0.5389154769100175   T   T   T
  0.0000000000000000  0.0000000000000000  0.5430510934080448   T   T   T
  0.6666669999999968  0.3333330000000032  0.5285036851785456   T   T   T
  0.6753899888677665  0.9951341703423591  0.5389154769100175   T   T   T
  0.6753899888677664  0.6802558185254070  0.5389154769100175   T   T   T
  0.3197441814745929  0.9951341703423591  0.5389154769100175   T   T   T
  0.3333330000000032  0.6666669999999968  0.5424083651523401   T   T   T
  0.3197441814745929  0.3246100111322340  0.5389154769100175   T   T   T
  0.0000000000000000  0.0000000000000000  0.5084579479683802   T   T   T
  0.9978168633838626  0.4989084316919348  0.5075187621454156   T   T   T
  0.5010915683080651  0.4989084316919348  0.5075187621454156   T   T   T
  0.5010915683080651  0.0021831366161373  0.5075187621454156   T   T   T
  0.3333330000000032  0.6666669999999968  0.4849049811073587   T   T   T
  0.3323072821318587  0.1661541410659281  0.4849550162842302   T   T   T
  0.8338458589340720  0.1661541410659281  0.4849550162842302   T   T   T
  0.8338458589340720  0.6676927178681413  0.4849550162842302   T   T   T
  0.6666669999999968  0.3333330000000032  0.4605383679369138   T   T   T
  0.6666708218943310  0.8333349109471704  0.4605010650641386   T   T   T
  0.1666650890528298  0.8333349109471704  0.4605010650641386   T   T   T
  0.1666650890528298  0.3333291781056692  0.4605010650641386   T   T   T
  0.0000000000000000  0.5000000000000000  0.4349640000000008   F   F   F
  0.5000000000000000  0.5000000000000000  0.4349640000000008   F   F   F
  0.5000000000000000  0.0000000000000000  0.4349640000000008   F   F   F
  0.0000000000000000  0.0000000000000000  0.4349640000000008   F   F   F
  0.3333330000000032  0.1666669999999968  0.4101199999999992   F   F   F
  0.8333330000000032  0.1666669999999968  0.4101199999999992   F   F   F
  0.8333330000000032  0.6666669999999968  0.4101199999999992   F   F   F
  0.3333330000000032  0.6666669999999968  0.4101199999999992   F   F   F
  0.6666669999999968  0.3333330000000032  0.3852750000000000   F   F   F
  0.6666669999999968  0.8333330000000032  0.3852750000000000   F   F   F
  0.1666669999999968  0.8333330000000032  0.3852750000000000   F   F   F
  0.1666669999999968  0.3333330000000032  0.3852750000000000   F   F   F
  0.0000000000000000  0.0000000000000000  0.3604309999999984   F   F   F
  0.0000000000000000  0.5000000000000000  0.3604309999999984   F   F   F
  0.5000000000000000  0.5000000000000000  0.3604309999999984   F   F   F
  0.5000000000000000  0.0000000000000000  0.3604309999999984   F   F   F
  0.3333330000000032  0.6666669999999968  0.3355859999999993   F   F   F
  0.3333330000000032  0.1666669999999968  0.3355859999999993   F   F   F
  0.8333330000000032  0.1666669999999968  0.3355859999999993   F   F   F
  0.8333330000000032  0.6666669999999968  0.3355859999999993   F   F   F
  0.6666669999999968  0.3333330000000032  0.3107419999999976   F   F   F
  0.6666669999999968  0.8333330000000032  0.3107419999999976   F   F   F
  0.1666669999999968  0.8333330000000032  0.3107419999999976   F   F   F
  0.1666669999999968  0.3333330000000032  0.3107419999999976   F   F   F
  0.0000000000000000  0.0000000000000000  0.2858969999999985   F   F   F
  0.0000000000000000  0.5000000000000000  0.2858969999999985   F   F   F
  0.5000000000000000  0.5000000000000000  0.2858969999999985   F   F   F
  0.5000000000000000  0.0000000000000000  0.2858969999999985   F   F   F
  0.3333330000000032  0.6666669999999968  0.2610529999999969   F   F   F
  0.3333330000000032  0.1666669999999968  0.2610529999999969   F   F   F
  0.8333330000000032  0.1666669999999968  0.2610529999999969   F   F   F
  0.8333330000000032  0.6666669999999968  0.2610529999999969   F   F   F
  0.6666669999999968  0.3333330000000032  0.2362079999999978   F   F   F
  0.6666669999999968  0.8333330000000032  0.2362079999999978   F   F   F
  0.1666669999999968  0.8333330000000032  0.2362079999999978   F   F   F
  0.1666669999999968  0.3333330000000032  0.2362079999999978   F   F   F
  0.0000000000000000  0.0000000000000000  0.5259334340475259   T   T   T
  0.9826642803657539  0.4913311401828759  0.5251232782556856   T   T   T
  0.5086688598171243  0.4913311401828759  0.5251232782556856   T   T   T
  0.5086688598171243  0.0173357196342460  0.5251232782556856   T   T   T
  0.3333330000000032  0.6666669999999968  0.5025882885514399   T   T   T
  0.3311363021276962  0.1655686510638433  0.5026191713420448   T   T   T
  0.8344313489361566  0.1655686510638433  0.5026191713420448   T   T   T
  0.8344313489361566  0.6688636978723037  0.5026191713420448   T   T   T
  0.6666669999999968  0.3333330000000032  0.4798299995955230   T   T   T
  0.6667004353832616  0.8333497176916282  0.4797709936432461   T   T   T
  0.1666502823083716  0.8333497176916282  0.4797709936432461   T   T   T
  0.1666502823083716  0.3332995646167386  0.4797709936432461   T   T   T
  0.0000000000000000  0.0000000000000000  0.4538777546539497   T   T   T
 -0.0000512409254930  0.4999743795372535  0.4538945822147976   T   T   T
  0.5000256204627465  0.4999743795372535  0.4538945822147976   T   T   T
  0.5000256204627465  0.0000512409254930  0.4538945822147976   T   T   T
  0.3333330000000032  0.6666669999999968  0.4287530000000004   F   F   F
  0.3333330000000032  0.1666669999999968  0.4287530000000004   F   F   F
  0.8333330000000032  0.1666669999999968  0.4287530000000004   F   F   F
  0.8333330000000032  0.6666669999999968  0.4287530000000004   F   F   F
  0.6666669999999968  0.3333330000000032  0.4039080000000013   F   F   F
  0.6666669999999968  0.8333330000000032  0.4039080000000013   F   F   F
  0.1666669999999968  0.8333330000000032  0.4039080000000013   F   F   F
  0.1666669999999968  0.3333330000000032  0.4039080000000013   F   F   F
  0.0000000000000000  0.0000000000000000  0.3790639999999996   F   F   F
  0.0000000000000000  0.5000000000000000  0.3790639999999996   F   F   F
  0.5000000000000000  0.5000000000000000  0.3790639999999996   F   F   F
  0.5000000000000000  0.0000000000000000  0.3790639999999996   F   F   F
  0.3333330000000032  0.6666669999999968  0.3542190000000005   F   F   F
  0.3333330000000032  0.1666669999999968  0.3542190000000005   F   F   F
  0.8333330000000032  0.1666669999999968  0.3542190000000005   F   F   F
  0.8333330000000032  0.6666669999999968  0.3542190000000005   F   F   F
  0.6666669999999968  0.3333330000000032  0.3293749999999989   F   F   F
  0.6666669999999968  0.8333330000000032  0.3293749999999989   F   F   F
  0.1666669999999968  0.8333330000000032  0.3293749999999989   F   F   F
  0.1666669999999968  0.3333330000000032  0.3293749999999989   F   F   F
  0.0000000000000000  0.0000000000000000  0.3045299999999997   F   F   F
  0.0000000000000000  0.5000000000000000  0.3045299999999997   F   F   F
  0.5000000000000000  0.5000000000000000  0.3045299999999997   F   F   F
  0.5000000000000000  0.0000000000000000  0.3045299999999997   F   F   F
  0.3333330000000032  0.6666669999999968  0.2796859999999981   F   F   F
  0.3333330000000032  0.1666669999999968  0.2796859999999981   F   F   F
  0.8333330000000032  0.1666669999999968  0.2796859999999981   F   F   F
  0.8333330000000032  0.6666669999999968  0.2796859999999981   F   F   F
  0.6666669999999968  0.3333330000000032  0.2548409999999990   F   F   F
  0.6666669999999968  0.8333330000000032  0.2548409999999990   F   F   F
  0.1666669999999968  0.8333330000000032  0.2548409999999990   F   F   F
  0.1666669999999968  0.3333330000000032  0.2548409999999990   F   F   F
  0.0000000000000000  0.0000000000000000  0.2299969999999973   F   F   F
  0.0000000000000000  0.5000000000000000  0.2299969999999973   F   F   F
  0.5000000000000000  0.5000000000000000  0.2299969999999973   F   F   F
  0.5000000000000000  0.0000000000000000  0.2299969999999973   F   F   F
  0.0000000000000000  0.0000000000000000  0.2192160000000030   F   F   F
  0.0000000000000000  0.5000000000000000  0.2192160000000030   F   F   F
  0.5000000000000000  0.5000000000000000  0.2192160000000030   F   F   F
  0.5000000000000000  0.0000000000000000  0.2192160000000030   F   F   F
 
  0.00000000E+00  0.00000000E+00  0.00000000E+00
  0.00000000E+00  0.00000000E+00  0.00000000E+00
  0.00000000E+00  0.00000000E+00  0.00000000E+00
  0.00000000E+00  0.00000000E+00  0.00000000E+00
  0.00000000E+00  0.00000000E+00  0.00000000E+00
  0.00000000E+00  0.00000000E+00  0.00000000E+00
  0.00000000E+00  0.00000000E+00  0.00000000E+00
  0.00000000E+00  0.00000000E+00  0.00000000E+00
  0.00000000E+00  0.00000000E+00  0.00000000E+00
  0.00000000E+00  0.00000000E+00  0.00000000E+00
  0.00000000E+00  0.00000000E+00  0.00000000E+00
  0.00000000E+00  0.00000000E+00  0.00000000E+00
  0.00000000E+00  0.00000000E+00  0.00000000E+00
  0.00000000E+00  0.00000000E+00  0.00000000E+00
  0.00000000E+00  0.00000000E+00  0.00000000E+00
  0.00000000E+00  0.00000000E+00  0.00000000E+00
  0.00000000E+00  0.00000000E+00  0.00000000E+00
  0.00000000E+00  0.00000000E+00  0.00000000E+00
  0.00000000E+00  0.00000000E+00  0.00000000E+00
  0.00000000E+00  0.00000000E+00  0.00000000E+00
  0.00000000E+00  0.00000000E+00  0.00000000E+00
  0.00000000E+00  0.00000000E+00  0.00000000E+00
  0.00000000E+00  0.00000000E+00  0.00000000E+00
  0.00000000E+00  0.00000000E+00  0.00000000E+00
  0.00000000E+00  0.00000000E+00  0.00000000E+00
  0.00000000E+00  0.00000000E+00  0.00000000E+00
  0.00000000E+00  0.00000000E+00  0.00000000E+00
  0.00000000E+00  0.00000000E+00  0.00000000E+00
  0.00000000E+00  0.00000000E+00  0.00000000E+00
  0.00000000E+00  0.00000000E+00  0.00000000E+00
  0.00000000E+00  0.00000000E+00  0.00000000E+00
  0.00000000E+00  0.00000000E+00  0.00000000E+00
  0.00000000E+00  0.00000000E+00  0.00000000E+00
  0.00000000E+00  0.00000000E+00  0.00000000E+00
  0.00000000E+00  0.00000000E+00  0.00000000E+00
  0.00000000E+00  0.00000000E+00  0.00000000E+00
  0.00000000E+00  0.00000000E+00  0.00000000E+00
  0.00000000E+00  0.00000000E+00  0.00000000E+00
  0.00000000E+00  0.00000000E+00  0.00000000E+00
  0.00000000E+00  0.00000000E+00  0.00000000E+00
  0.00000000E+00  0.00000000E+00  0.00000000E+00
  0.00000000E+00  0.00000000E+00  0.00000000E+00
  0.00000000E+00  0.00000000E+00  0.00000000E+00
  0.00000000E+00  0.00000000E+00  0.00000000E+00
  0.00000000E+00  0.00000000E+00  0.00000000E+00
  0.00000000E+00  0.00000000E+00  0.00000000E+00
  0.00000000E+00  0.00000000E+00  0.00000000E+00
  0.00000000E+00  0.00000000E+00  0.00000000E+00
  0.00000000E+00  0.00000000E+00  0.00000000E+00
  0.00000000E+00  0.00000000E+00  0.00000000E+00
  0.00000000E+00  0.00000000E+00  0.00000000E+00
  0.00000000E+00  0.00000000E+00  0.00000000E+00
  0.00000000E+00  0.00000000E+00  0.00000000E+00
  0.00000000E+00  0.00000000E+00  0.00000000E+00
  0.00000000E+00  0.00000000E+00  0.00000000E+00
  0.00000000E+00  0.00000000E+00  0.00000000E+00
  0.00000000E+00  0.00000000E+00  0.00000000E+00
  0.00000000E+00  0.00000000E+00  0.00000000E+00
  0.00000000E+00  0.00000000E+00  0.00000000E+00
  0.00000000E+00  0.00000000E+00  0.00000000E+00
  0.00000000E+00  0.00000000E+00  0.00000000E+00
  0.00000000E+00  0.00000000E+00  0.00000000E+00
  0.00000000E+00  0.00000000E+00  0.00000000E+00
  0.00000000E+00  0.00000000E+00  0.00000000E+00
  0.00000000E+00  0.00000000E+00  0.00000000E+00
  0.00000000E+00  0.00000000E+00  0.00000000E+00
  0.00000000E+00  0.00000000E+00  0.00000000E+00
  0.00000000E+00  0.00000000E+00  0.00000000E+00
  0.00000000E+00  0.00000000E+00  0.00000000E+00
  0.00000000E+00  0.00000000E+00  0.00000000E+00
  0.00000000E+00  0.00000000E+00  0.00000000E+00
  0.00000000E+00  0.00000000E+00  0.00000000E+00
  0.00000000E+00  0.00000000E+00  0.00000000E+00
  0.00000000E+00  0.00000000E+00  0.00000000E+00
  0.00000000E+00  0.00000000E+00  0.00000000E+00
  0.00000000E+00  0.00000000E+00  0.00000000E+00
  0.00000000E+00  0.00000000E+00  0.00000000E+00
  0.00000000E+00  0.00000000E+00  0.00000000E+00
  0.00000000E+00  0.00000000E+00  0.00000000E+00
  0.00000000E+00  0.00000000E+00  0.00000000E+00
  0.00000000E+00  0.00000000E+00  0.00000000E+00
  0.00000000E+00  0.00000000E+00  0.00000000E+00
  0.00000000E+00  0.00000000E+00  0.00000000E+00
  0.00000000E+00  0.00000000E+00  0.00000000E+00
  0.00000000E+00  0.00000000E+00  0.00000000E+00
  0.00000000E+00  0.00000000E+00  0.00000000E+00
  0.00000000E+00  0.00000000E+00  0.00000000E+00
  0.00000000E+00  0.00000000E+00  0.00000000E+00
  0.00000000E+00  0.00000000E+00  0.00000000E+00
  0.00000000E+00  0.00000000E+00  0.00000000E+00
  0.00000000E+00  0.00000000E+00  0.00000000E+00
  0.00000000E+00  0.00000000E+00  0.00000000E+00
  0.00000000E+00  0.00000000E+00  0.00000000E+00
  0.00000000E+00  0.00000000E+00  0.00000000E+00
  0.00000000E+00  0.00000000E+00  0.00000000E+00
  0.00000000E+00  0.00000000E+00  0.00000000E+00
  0.00000000E+00  0.00000000E+00  0.00000000E+00
  0.00000000E+00  0.00000000E+00  0.00000000E+00
  0.00000000E+00  0.00000000E+00  0.00000000E+00
  0.00000000E+00  0.00000000E+00  0.00000000E+00
  0.00000000E+00  0.00000000E+00  0.00000000E+00
  0.00000000E+00  0.00000000E+00  0.00000000E+00
  0.00000000E+00  0.00000000E+00  0.00000000E+00
  0.00000000E+00  0.00000000E+00  0.00000000E+00
  0.00000000E+00  0.00000000E+00  0.00000000E+00
  0.00000000E+00  0.00000000E+00  0.00000000E+00
  0.00000000E+00  0.00000000E+00  0.00000000E+00
  0.00000000E+00  0.00000000E+00  0.00000000E+00
  0.00000000E+00  0.00000000E+00  0.00000000E+00
  0.00000000E+00  0.00000000E+00  0.00000000E+00
  0.00000000E+00  0.00000000E+00  0.00000000E+00
  0.00000000E+00  0.00000000E+00  0.00000000E+00
  0.00000000E+00  0.00000000E+00  0.00000000E+00
  0.00000000E+00  0.00000000E+00  0.00000000E+00
  0.00000000E+00  0.00000000E+00  0.00000000E+00
  0.00000000E+00  0.00000000E+00  0.00000000E+00
  0.00000000E+00  0.00000000E+00  0.00000000E+00
  0.00000000E+00  0.00000000E+00  0.00000000E+00
  0.00000000E+00  0.00000000E+00  0.00000000E+00
  0.00000000E+00  0.00000000E+00  0.00000000E+00
  0.00000000E+00  0.00000000E+00  0.00000000E+00
  0.00000000E+00  0.00000000E+00  0.00000000E+00
  0.00000000E+00  0.00000000E+00  0.00000000E+00
  0.00000000E+00  0.00000000E+00  0.00000000E+00
  0.00000000E+00  0.00000000E+00  0.00000000E+00
  0.00000000E+00  0.00000000E+00  0.00000000E+00
  0.00000000E+00  0.00000000E+00  0.00000000E+00
  0.00000000E+00  0.00000000E+00  0.00000000E+00
  0.00000000E+00  0.00000000E+00  0.00000000E+00
  0.00000000E+00  0.00000000E+00  0.00000000E+00
  0.00000000E+00  0.00000000E+00  0.00000000E+00
  0.00000000E+00  0.00000000E+00  0.00000000E+00
  0.00000000E+00  0.00000000E+00  0.00000000E+00
  0.00000000E+00  0.00000000E+00  0.00000000E+00
  0.00000000E+00  0.00000000E+00  0.00000000E+00
  0.00000000E+00  0.00000000E+00  0.00000000E+00
  0.00000000E+00  0.00000000E+00  0.00000000E+00
  0.00000000E+00  0.00000000E+00  0.00000000E+00
  0.00000000E+00  0.00000000E+00  0.00000000E+00
  0.00000000E+00  0.00000000E+00  0.00000000E+00
  0.00000000E+00  0.00000000E+00  0.00000000E+00
  0.00000000E+00  0.00000000E+00  0.00000000E+00
  0.00000000E+00  0.00000000E+00  0.00000000E+00
  0.00000000E+00  0.00000000E+00  0.00000000E+00
  0.00000000E+00  0.00000000E+00  0.00000000E+00
  0.00000000E+00  0.00000000E+00  0.00000000E+00
  0.00000000E+00  0.00000000E+00  0.00000000E+00
  0.00000000E+00  0.00000000E+00  0.00000000E+00
  0.00000000E+00  0.00000000E+00  0.00000000E+00
  0.00000000E+00  0.00000000E+00  0.00000000E+00
  0.00000000E+00  0.00000000E+00  0.00000000E+00
  0.00000000E+00  0.00000000E+00  0.00000000E+00
  0.00000000E+00  0.00000000E+00  0.00000000E+00
  0.00000000E+00  0.00000000E+00  0.00000000E+00
  0.00000000E+00  0.00000000E+00  0.00000000E+00
  0.00000000E+00  0.00000000E+00  0.00000000E+00
  0.00000000E+00  0.00000000E+00  0.00000000E+00
  0.00000000E+00  0.00000000E+00  0.00000000E+00
  0.00000000E+00  0.00000000E+00  0.00000000E+00
  0.00000000E+00  0.00000000E+00  0.00000000E+00
  0.00000000E+00  0.00000000E+00  0.00000000E+00
  0.00000000E+00  0.00000000E+00  0.00000000E+00
  0.00000000E+00  0.00000000E+00  0.00000000E+00
  0.00000000E+00  0.00000000E+00  0.00000000E+00
  0.00000000E+00  0.00000000E+00  0.00000000E+00
  0.00000000E+00  0.00000000E+00  0.00000000E+00
  0.00000000E+00  0.00000000E+00  0.00000000E+00
