Al45 In16 As20 H4
1.0
-4.283936 -7.419994 0.000000
-4.283936 7.419994 0.000000
0.000000 0.000000 -48.142149
Al In As H
45 16 20 4
direct
0.444444 0.888889 0.584564 Al
0.444444 0.555556 0.584564 Al
0.444444 0.222222 0.584564 Al
0.111111 0.555556 0.584564 Al
0.111111 0.222222 0.584564 Al
0.111111 0.888889 0.584564 Al
0.777778 0.222222 0.584564 Al
0.777778 0.888889 0.584564 Al
0.777778 0.555556 0.584564 Al
0.000000 0.666667 0.536126 Al
0.000000 0.333333 0.536126 Al
0.000000 0.000000 0.536126 Al
0.666667 0.333333 0.536126 Al
0.666667 1.000000 0.536126 Al
0.666667 0.666667 0.536126 Al
0.333333 1.000000 0.536126 Al
0.333333 0.666667 0.536126 Al
0.333333 0.333333 0.536126 Al
0.222222 0.444444 0.487689 Al
0.222222 0.111111 0.487689 Al
0.222222 0.777778 0.487689 Al
0.888889 0.111111 0.487689 Al
0.888889 0.777778 0.487689 Al
0.888889 0.444444 0.487689 Al
0.555556 0.777778 0.487689 Al
0.555556 0.444444 0.487689 Al
0.555556 0.111111 0.487689 Al
0.444444 0.888889 0.439252 Al
0.444444 0.555556 0.439252 Al
0.444444 0.222222 0.439252 Al
0.111111 0.555556 0.439252 Al
0.111111 0.222222 0.439252 Al
0.111111 0.888889 0.439252 Al
0.777778 0.222222 0.439252 Al
0.777778 0.888889 0.439252 Al
0.777778 0.555556 0.439252 Al
0.000000 0.666667 0.390814 Al
0.000000 0.333333 0.390814 Al
0.000000 0.000000 0.390814 Al
0.666667 0.333333 0.390814 Al
0.666667 0.000000 0.390814 Al
0.666667 0.666667 0.390814 Al
0.333333 0.000000 0.390814 Al
0.333333 0.666667 0.390814 Al
0.333333 0.333333 0.390814 Al
0.666667 0.333333 0.290624 In
0.666667 0.833333 0.290624 In
0.166667 0.833333 0.290624 In
0.166667 0.333333 0.290624 In
0.000000 0.500000 0.217968 In
0.500000 0.500000 0.217968 In
0.500000 1.000000 0.217968 In
0.000000 0.000000 0.217968 In
0.333333 0.666667 0.145312 In
0.333333 0.166667 0.145312 In
0.833333 0.166667 0.145312 In
0.833333 0.666667 0.145312 In
0.666667 0.333333 0.072656 In
0.666667 0.833333 0.072656 In
0.166667 0.833333 0.072656 In
0.166667 0.333333 0.072656 In
0.666667 0.333333 0.345116 As
0.666667 0.833333 0.345116 As
0.166667 0.833333 0.345116 As
0.166667 0.333333 0.345116 As
0.000000 0.000000 0.272460 As
0.000000 0.500000 0.272460 As
0.500000 0.500000 0.272460 As
0.500000 1.000000 0.272460 As
0.333333 0.666667 0.199804 As
0.333333 0.166667 0.199804 As
0.833333 0.166667 0.199804 As
0.833333 0.666667 0.199804 As
0.666667 0.333333 0.127148 As
0.666667 0.833333 0.127148 As
0.166667 0.833333 0.127148 As
0.166667 0.333333 0.127148 As
0.000000 0.000000 0.054492 As
1.000000 0.500000 0.054492 As
0.500000 0.500000 0.054492 As
0.500000 0.000000 0.054492 As
0.000000 0.000000 0.022962 H
1.000000 0.500000 0.022962 H
0.500000 0.500000 0.022962 H
0.500000 0.000000 0.022962 H
