In1 As2
1.0
2.141968 -3.709997 0.000000
2.141968 3.709997 0.000000
0.000000 0.000000 64.372274
In As
1 2
direct
0.000000 0.000000 0.520377 In
0.666667 0.333333 0.533961 As
0.000000 0.000000 0.479623 As
