Cr24 H24 O39
1.0
4.953000 0.000000 0.000000
-2.476500 4.289424 0.000000
0.000000 -0.000000 113.381659
Cr H O
24 24 39
direct
0.333333 0.666667 0.615652 Cr
0.666667 0.333333 0.612104 Cr
0.000000 0.000000 0.595693 Cr
0.333333 0.666667 0.592145 Cr
0.666667 0.333333 0.575734 Cr
0.000000 0.000000 0.572186 Cr
0.333333 0.666667 0.555775 Cr
0.666667 0.333333 0.552226 Cr
0.000000 0.000000 0.535816 Cr
0.333333 0.666667 0.532267 Cr
0.666667 0.333333 0.515856 Cr
0.000000 0.000000 0.512308 Cr
0.333333 0.666667 0.495897 Cr
0.666667 0.333333 0.492349 Cr
0.000000 0.000000 0.475938 Cr
0.333333 0.666667 0.472390 Cr
0.666667 0.333333 0.455979 Cr
0.000000 0.000000 0.452431 Cr
0.333333 0.666667 0.436020 Cr
0.666667 0.333333 0.432472 Cr
0.000000 0.000000 0.416061 Cr
0.333333 0.666667 0.412513 Cr
0.666667 0.333333 0.396102 Cr
0.000000 0.000000 0.392553 Cr
0.220046 0.757048 0.383480 H
0.242952 0.462998 0.383480 H
0.537002 0.779955 0.383480 H
0.537002 0.779955 0.383480 H
0.220046 0.757048 0.383480 H
0.242953 0.462998 0.383480 H
0.397482 0.250821 0.376294 H
0.749179 0.146661 0.376294 H
0.853339 0.602518 0.376294 H
0.749179 0.146661 0.376294 H
0.397482 0.250821 0.376294 H
0.853339 0.602518 0.376294 H
0.584155 0.064149 0.631911 H
0.796331 0.909619 0.624726 H
0.113288 0.203668 0.624726 H
0.935851 0.520006 0.631911 H
0.479994 0.415846 0.631911 H
0.090380 0.886712 0.624726 H
0.796331 0.909619 0.624726 H
0.935851 0.520006 0.631911 H
0.113288 0.203668 0.624726 H
0.090381 0.886712 0.624726 H
0.584155 0.064148 0.631911 H
0.479994 0.415845 0.631911 H
0.666667 0.029533 0.623857 O
0.970467 0.637134 0.623857 O
0.362866 0.333333 0.623857 O
0.333333 0.970467 0.603898 O
0.029533 0.362866 0.603898 O
0.637134 0.666667 0.603898 O
1.000000 0.696199 0.583939 O
0.303801 0.303801 0.583939 O
0.696199 0.000000 0.583939 O
0.666667 0.637134 0.563980 O
0.362866 0.029533 0.563980 O
0.970467 0.333333 0.563980 O
0.333333 0.362866 0.544021 O
0.637134 0.970467 0.544021 O
0.029533 0.666667 0.544021 O
0.000000 0.303801 0.524062 O
0.696199 0.696199 0.524062 O
0.303801 0.000000 0.524062 O
0.666667 0.029533 0.504103 O
0.970467 0.637134 0.504103 O
0.362866 0.333333 0.504103 O
0.333333 0.970467 0.484144 O
0.029533 0.362866 0.484144 O
0.637134 0.666667 0.484144 O
1.000000 0.696199 0.464184 O
0.303801 0.303801 0.464184 O
0.696199 0.000000 0.464184 O
0.666667 0.637134 0.444225 O
0.362866 0.029533 0.444225 O
0.970467 0.333333 0.444225 O
0.333333 0.362866 0.424266 O
0.637134 0.970467 0.424266 O
0.029533 0.666667 0.424266 O
0.000000 0.303801 0.404307 O
0.696199 0.696199 0.404307 O
0.303801 0.000000 0.404307 O
0.666667 0.029533 0.384348 O
0.970467 0.637134 0.384348 O
0.362866 0.333333 0.384348 O
