Cr36 H24 O57
1.0
4.953000 0.000000 0.000000
-2.476500 4.289424 0.000000
0.000000 -0.000000 126.959658
Cr H O
36 24 57
direct
0.333333 0.666667 0.656757 Cr
0.666667 0.333333 0.653588 Cr
0.000000 0.000000 0.638933 Cr
0.333333 0.666667 0.635764 Cr
0.666667 0.333333 0.621108 Cr
0.000000 0.000000 0.617939 Cr
0.333333 0.666667 0.603283 Cr
0.666667 0.333333 0.600115 Cr
0.000000 0.000000 0.585459 Cr
0.333333 0.666667 0.582290 Cr
0.666667 0.333333 0.567634 Cr
0.000000 0.000000 0.564466 Cr
0.333333 0.666667 0.549810 Cr
0.666667 0.333333 0.546641 Cr
0.000000 0.000000 0.531985 Cr
0.333333 0.666667 0.528816 Cr
0.666667 0.333333 0.514161 Cr
0.000000 0.000000 0.510992 Cr
0.333333 0.666667 0.496336 Cr
0.666667 0.333333 0.493167 Cr
0.000000 0.000000 0.478511 Cr
0.333333 0.666667 0.475343 Cr
0.666667 0.333333 0.460687 Cr
0.000000 0.000000 0.457518 Cr
0.333333 0.666667 0.442862 Cr
0.666667 0.333333 0.439694 Cr
0.000000 0.000000 0.425038 Cr
0.333333 0.666667 0.421869 Cr
0.666667 0.333333 0.407213 Cr
0.000000 0.000000 0.404044 Cr
0.333333 0.666667 0.389389 Cr
0.666667 0.333333 0.386220 Cr
0.000000 0.000000 0.371564 Cr
0.333333 0.666667 0.368395 Cr
0.666667 0.333333 0.353740 Cr
0.000000 0.000000 0.350571 Cr
0.220046 0.757048 0.342468 H
0.242952 0.462998 0.342468 H
0.537002 0.779955 0.342468 H
0.537002 0.779955 0.342468 H
0.220046 0.757048 0.342468 H
0.242953 0.462998 0.342468 H
0.397482 0.250821 0.336050 H
0.749179 0.146661 0.336050 H
0.853339 0.602518 0.336050 H
0.749179 0.146661 0.336050 H
0.397482 0.250821 0.336050 H
0.853339 0.602518 0.336050 H
0.584155 0.064149 0.671277 H
0.796331 0.909619 0.664860 H
0.113288 0.203668 0.664860 H
0.935851 0.520006 0.671277 H
0.479994 0.415846 0.671277 H
0.090380 0.886712 0.664860 H
0.796331 0.909619 0.664860 H
0.935851 0.520006 0.671277 H
0.113288 0.203668 0.664860 H
0.090381 0.886712 0.664860 H
0.584155 0.064148 0.671277 H
0.479994 0.415845 0.671277 H
0.666667 0.029533 0.664085 O
0.970467 0.637134 0.664085 O
0.362866 0.333333 0.664085 O
0.333333 0.970467 0.646260 O
0.029533 0.362866 0.646260 O
0.637134 0.666667 0.646260 O
1.000000 0.696199 0.628436 O
0.303801 0.303801 0.628436 O
0.696199 0.000000 0.628436 O
0.666667 0.637134 0.610611 O
0.362866 0.029533 0.610611 O
0.970467 0.333333 0.610611 O
0.333333 0.362866 0.592787 O
0.637134 0.970467 0.592787 O
0.029533 0.666667 0.592787 O
0.000000 0.303801 0.574962 O
0.696199 0.696199 0.574962 O
0.303801 0.000000 0.574962 O
0.666667 0.029533 0.557138 O
0.970467 0.637134 0.557138 O
0.362866 0.333333 0.557138 O
0.333333 0.970467 0.539313 O
0.029533 0.362866 0.539313 O
0.637134 0.666667 0.539313 O
1.000000 0.696199 0.521489 O
0.303801 0.303801 0.521489 O
0.696199 0.000000 0.521489 O
0.666667 0.637134 0.503664 O
0.362866 0.029533 0.503664 O
0.970467 0.333333 0.503664 O
0.333333 0.362866 0.485839 O
0.637134 0.970467 0.485839 O
0.029533 0.666667 0.485839 O
0.000000 0.303801 0.468015 O
0.696199 0.696199 0.468015 O
0.303801 0.000000 0.468015 O
0.666667 0.029533 0.450190 O
0.970467 0.637134 0.450190 O
0.362866 0.333333 0.450190 O
0.333333 0.970467 0.432366 O
0.029533 0.362866 0.432366 O
0.637134 0.666667 0.432366 O
1.000000 0.696199 0.414541 O
0.303801 0.303801 0.414541 O
0.696199 0.000000 0.414541 O
0.666667 0.637134 0.396717 O
0.362866 0.029533 0.396717 O
0.970467 0.333333 0.396717 O
0.333333 0.362866 0.378892 O
0.637134 0.970467 0.378892 O
0.029533 0.666667 0.378892 O
0.000000 0.303801 0.361067 O
0.696199 0.696199 0.361067 O
0.303801 0.000000 0.361067 O
0.666667 0.029533 0.343243 O
0.970467 0.637134 0.343243 O
0.362866 0.333333 0.343243 O
