Cr12 H24 O21
1.0
4.953000 0.000000 0.000000
-2.476500 4.289424 0.000000
0.000000 -0.000000 99.803660
Cr H O
12 24 21
direct
0.333333 0.666667 0.563363 Cr
0.666667 0.333333 0.559332 Cr
0.000000 0.000000 0.540688 Cr
0.333333 0.666667 0.536657 Cr
0.666667 0.333333 0.518014 Cr
0.000000 0.000000 0.513983 Cr
0.333333 0.666667 0.495339 Cr
0.666667 0.333333 0.491308 Cr
0.000000 0.000000 0.472665 Cr
0.333333 0.666667 0.468634 Cr
0.666667 0.333333 0.449990 Cr
0.000000 0.000000 0.445959 Cr
0.220046 0.757048 0.435651 H
0.242952 0.462998 0.435651 H
0.537002 0.779955 0.435651 H
0.537002 0.779955 0.435651 H
0.220046 0.757048 0.435651 H
0.242953 0.462998 0.435651 H
0.397482 0.250821 0.427487 H
0.749179 0.146661 0.427487 H
0.853339 0.602518 0.427487 H
0.749179 0.146661 0.427487 H
0.397482 0.250821 0.427487 H
0.853339 0.602518 0.427487 H
0.584155 0.064149 0.581833 H
0.796331 0.909619 0.573671 H
0.113288 0.203668 0.573671 H
0.935851 0.520006 0.581833 H
0.479994 0.415846 0.581833 H
0.090380 0.886712 0.573671 H
0.796331 0.909619 0.573671 H
0.935851 0.520006 0.581833 H
0.113288 0.203668 0.573671 H
0.090381 0.886712 0.573671 H
0.584155 0.064148 0.581833 H
0.479994 0.415845 0.581833 H
0.666667 0.029533 0.572684 O
0.970467 0.637134 0.572684 O
0.362866 0.333333 0.572684 O
0.333333 0.970467 0.550010 O
0.029533 0.362866 0.550010 O
0.637134 0.666667 0.550010 O
1.000000 0.696199 0.527335 O
0.303801 0.303801 0.527335 O
0.696199 0.000000 0.527335 O
0.666667 0.637134 0.504661 O
0.362866 0.029533 0.504661 O
0.970467 0.333333 0.504661 O
0.333333 0.362866 0.481986 O
0.637134 0.970467 0.481986 O
0.029533 0.666667 0.481986 O
0.000000 0.303801 0.459312 O
0.696199 0.696199 0.459312 O
0.303801 0.000000 0.459312 O
0.666667 0.029533 0.436637 O
0.970467 0.637134 0.436637 O
0.362866 0.333333 0.436637 O
