In45 Fe78 Sb45 H10
1.0
0.000000 0.000000 10.244831
-0.000000 10.244831 0.000000
-79.842150 -0.000000 0.000000
In Fe Sb H
45 78 45 10
direct
0.000000 0.000000 0.365187 In
0.400000 0.200000 0.365187 In
0.800000 0.400000 0.365187 In
0.200000 0.600000 0.365187 In
0.600000 0.800000 0.365187 In
0.700000 0.100000 0.324610 In
0.100000 0.300000 0.324610 In
0.500000 0.500000 0.324610 In
0.900000 0.700000 0.324610 In
0.300000 0.900000 0.324610 In
0.000000 0.000000 0.284034 In
0.400000 0.200000 0.284034 In
0.800000 0.400000 0.284034 In
0.200000 0.600000 0.284034 In
0.600000 0.800000 0.284034 In
0.700000 0.100000 0.243458 In
0.100000 0.300000 0.243458 In
0.500000 0.500000 0.243458 In
0.900000 0.700000 0.243458 In
0.300000 0.900000 0.243458 In
0.000000 0.000000 0.202882 In
0.400000 0.200000 0.202882 In
0.800000 0.400000 0.202882 In
0.200000 0.600000 0.202882 In
0.600000 0.800000 0.202882 In
0.700000 0.100000 0.162305 In
0.100000 0.300000 0.162305 In
0.500000 0.500000 0.162305 In
0.900000 0.700000 0.162305 In
0.300000 0.900000 0.162305 In
0.000000 0.000000 0.121729 In
0.400000 0.200000 0.121729 In
0.800000 0.400000 0.121729 In
0.200000 0.600000 0.121729 In
0.600000 0.800000 0.121729 In
0.700000 0.100000 0.081153 In
0.100000 0.300000 0.081153 In
0.500000 0.500000 0.081153 In
0.900000 0.700000 0.081153 In
0.300000 0.900000 0.081153 In
0.000000 0.000000 0.040576 In
0.400000 0.200000 0.040576 In
0.800000 0.400000 0.040576 In
0.200000 0.600000 0.040576 In
0.600000 0.800000 0.040576 In
0.067745 0.250874 0.499011 Fe
0.913898 0.481643 0.499011 Fe
0.760052 0.712412 0.499011 Fe
0.606206 0.943182 0.499011 Fe
0.452360 0.173951 0.499011 Fe
0.298514 0.404720 0.499011 Fe
0.144668 0.635489 0.499011 Fe
0.990822 0.866258 0.499011 Fe
0.836975 0.097028 0.499011 Fe
0.683129 0.327797 0.499011 Fe
0.529283 0.558566 0.499011 Fe
0.375437 0.789335 0.499011 Fe
0.221591 0.020105 0.499011 Fe
0.029283 0.058566 0.481064 Fe
0.875437 0.289335 0.481064 Fe
0.721591 0.520105 0.481064 Fe
0.260052 0.212412 0.481064 Fe
0.106206 0.443182 0.481064 Fe
0.952360 0.673951 0.481064 Fe
0.644668 0.135489 0.481064 Fe
0.490822 0.366258 0.481064 Fe
0.336975 0.597028 0.481064 Fe
0.567745 0.750874 0.481064 Fe
0.413898 0.981643 0.481064 Fe
0.798514 0.904720 0.481064 Fe
0.183129 0.827797 0.481064 Fe
0.067745 0.250874 0.463116 Fe
0.913898 0.481643 0.463116 Fe
0.452360 0.173951 0.463116 Fe
0.298514 0.404720 0.463116 Fe
0.144668 0.635489 0.463116 Fe
0.836975 0.097028 0.463116 Fe
0.683129 0.327797 0.463116 Fe
0.529283 0.558566 0.463116 Fe
0.760052 0.712412 0.463116 Fe
0.606206 0.943182 0.463116 Fe
0.990822 0.866258 0.463116 Fe
0.375437 0.789335 0.463116 Fe
0.221591 0.020105 0.463116 Fe
0.029283 0.058566 0.445168 Fe
0.875437 0.289335 0.445168 Fe
0.721591 0.520105 0.445168 Fe
0.260052 0.212412 0.445168 Fe
0.106206 0.443182 0.445168 Fe
0.952360 0.673951 0.445168 Fe
0.644668 0.135489 0.445168 Fe
0.490822 0.366258 0.445168 Fe
0.336975 0.597028 0.445168 Fe
0.567745 0.750874 0.445168 Fe
0.413898 0.981643 0.445168 Fe
0.798514 0.904720 0.445168 Fe
0.183129 0.827797 0.445168 Fe
0.067745 0.250874 0.427220 Fe
0.913898 0.481643 0.427220 Fe
0.760052 0.712412 0.427220 Fe
0.606206 0.943182 0.427220 Fe
0.452360 0.173951 0.427220 Fe
0.298514 0.404720 0.427220 Fe
0.144668 0.635489 0.427220 Fe
0.990822 0.866258 0.427220 Fe
0.836975 0.097028 0.427220 Fe
0.683129 0.327797 0.427220 Fe
0.529283 0.558566 0.427220 Fe
0.375437 0.789335 0.427220 Fe
0.221591 0.020105 0.427220 Fe
0.029283 0.058566 0.409272 Fe
0.875437 0.289335 0.409272 Fe
0.721591 0.520105 0.409272 Fe
0.567745 0.750874 0.409272 Fe
0.413898 0.981643 0.409272 Fe
0.260052 0.212412 0.409272 Fe
0.106206 0.443182 0.409272 Fe
0.952360 0.673951 0.409272 Fe
0.798514 0.904720 0.409272 Fe
0.644668 0.135489 0.409272 Fe
0.490822 0.366258 0.409272 Fe
0.336975 0.597028 0.409272 Fe
0.183129 0.827797 0.409272 Fe
0.200000 0.100000 0.385475 Sb
0.600000 0.300000 0.385475 Sb
0.000000 0.500000 0.385475 Sb
0.800000 0.900000 0.385475 Sb
0.400000 0.700000 0.385475 Sb
0.500000 0.000000 0.344899 Sb
0.900000 0.200000 0.344899 Sb
0.300000 0.400000 0.344899 Sb
0.700000 0.600000 0.344899 Sb
0.100000 0.800000 0.344899 Sb
0.800000 0.900000 0.304322 Sb
0.200000 0.100000 0.304322 Sb
0.600000 0.300000 0.304322 Sb
0.000000 0.500000 0.304322 Sb
0.400000 0.700000 0.304322 Sb
0.500000 0.000000 0.263746 Sb
0.900000 0.200000 0.263746 Sb
0.300000 0.400000 0.263746 Sb
0.700000 0.600000 0.263746 Sb
0.100000 0.800000 0.263746 Sb
0.200000 0.100000 0.223170 Sb
0.600000 0.300000 0.223170 Sb
0.000000 0.500000 0.223170 Sb
0.800000 0.900000 0.223170 Sb
0.400000 0.700000 0.223170 Sb
0.500000 0.000000 0.182593 Sb
0.900000 0.200000 0.182593 Sb
0.300000 0.400000 0.182593 Sb
0.700000 0.600000 0.182593 Sb
0.100000 0.800000 0.182593 Sb
0.200000 0.100000 0.142017 Sb
0.600000 0.300000 0.142017 Sb
0.000000 0.500000 0.142017 Sb
0.800000 0.900000 0.142017 Sb
0.400000 0.700000 0.142017 Sb
0.500000 0.000000 0.101441 Sb
0.900000 0.200000 0.101441 Sb
0.300000 0.400000 0.101441 Sb
0.700000 0.600000 0.101441 Sb
0.100000 0.800000 0.101441 Sb
0.200000 0.100000 0.060864 Sb
0.600000 0.300000 0.060864 Sb
0.000000 0.500000 0.060864 Sb
0.800000 0.900000 0.060864 Sb
0.400000 0.700000 0.060864 Sb
0.944505 0.110990 0.025532 H
0.055495 0.889010 0.025532 H
0.655495 0.689010 0.025531 H
0.344505 0.310990 0.025531 H
0.144505 0.710990 0.025530 H
0.855495 0.289010 0.025530 H
0.255495 0.489010 0.025530 H
0.744505 0.510990 0.025530 H
0.455495 0.089010 0.025530 H
0.544505 0.910990 0.025530 H
