In75 Fe104 Sb75 H10
1.0
0.000000 0.000000 10.244831
-0.000000 10.244831 0.000000
-102.146350 -0.000000 0.000000
In Fe Sb H
75 78 75 10
direct
0.000000 0.000000 0.475744 In
0.400000 0.200000 0.475744 In
0.800000 0.400000 0.475744 In
0.200000 0.600000 0.475744 In
0.600000 0.800000 0.475744 In
0.700000 0.100000 0.444028 In
0.100000 0.300000 0.444028 In
0.500000 0.500000 0.444028 In
0.900000 0.700000 0.444028 In
0.300000 0.900000 0.444028 In
0.000000 0.000000 0.412311 In
0.400000 0.200000 0.412311 In
0.800000 0.400000 0.412311 In
0.200000 0.600000 0.412311 In
0.600000 0.800000 0.412311 In
0.700000 0.100000 0.380595 In
0.100000 0.300000 0.380595 In
0.500000 0.500000 0.380595 In
0.900000 0.700000 0.380595 In
0.300000 0.900000 0.380595 In
0.000000 0.000000 0.348879 In
0.400000 0.200000 0.348879 In
0.800000 0.400000 0.348879 In
0.200000 0.600000 0.348879 In
0.600000 0.800000 0.348879 In
0.700000 0.100000 0.317163 In
0.100000 0.300000 0.317163 In
0.500000 0.500000 0.317163 In
0.900000 0.700000 0.317163 In
0.300000 0.900000 0.317163 In
0.000000 0.000000 0.285446 In
0.400000 0.200000 0.285446 In
0.800000 0.400000 0.285446 In
0.200000 0.600000 0.285446 In
0.600000 0.800000 0.285446 In
0.700000 0.100000 0.253730 In
0.100000 0.300000 0.253730 In
0.500000 0.500000 0.253730 In
0.900000 0.700000 0.253730 In
0.300000 0.900000 0.253730 In
0.000000 0.000000 0.222014 In
0.400000 0.200000 0.222014 In
0.800000 0.400000 0.222014 In
0.200000 0.600000 0.222014 In
0.600000 0.800000 0.222014 In
0.700000 0.100000 0.190298 In
0.100000 0.300000 0.190298 In
0.500000 0.500000 0.190298 In
0.900000 0.700000 0.190298 In
0.300000 0.900000 0.190298 In
0.000000 0.000000 0.158581 In
0.400000 0.200000 0.158581 In
0.800000 0.400000 0.158581 In
0.200000 0.600000 0.158581 In
0.600000 0.800000 0.158581 In
0.700000 0.100000 0.126865 In
0.100000 0.300000 0.126865 In
0.500000 0.500000 0.126865 In
0.900000 0.700000 0.126865 In
0.300000 0.900000 0.126865 In
0.000000 0.000000 0.095149 In
0.400000 0.200000 0.095149 In
0.800000 0.400000 0.095149 In
0.200000 0.600000 0.095149 In
0.600000 0.800000 0.095149 In
0.700000 0.100000 0.063433 In
0.100000 0.300000 0.063433 In
0.500000 0.500000 0.063433 In
0.900000 0.700000 0.063433 In
0.300000 0.900000 0.063433 In
0.000000 0.000000 0.031716 In
0.400000 0.200000 0.031716 In
0.800000 0.400000 0.031716 In
0.200000 0.600000 0.031716 In
0.600000 0.800000 0.031716 In
0.067745 0.250874 0.580347 Fe
0.913898 0.481643 0.580347 Fe
0.760052 0.712412 0.580347 Fe
0.606206 0.943182 0.580347 Fe
0.452360 0.173951 0.580347 Fe
0.298514 0.404720 0.580347 Fe
0.144668 0.635489 0.580347 Fe
0.990822 0.866258 0.580347 Fe
0.836975 0.097028 0.580347 Fe
0.683129 0.327797 0.580347 Fe
0.529283 0.558566 0.580347 Fe
0.375437 0.789335 0.580347 Fe
0.221591 0.020105 0.580347 Fe
0.029283 0.058566 0.566318 Fe
0.875437 0.289335 0.566318 Fe
0.260052 0.212412 0.566318 Fe
0.644668 0.135489 0.566318 Fe
0.490822 0.366258 0.566318 Fe
0.721591 0.520105 0.566318 Fe
0.567745 0.750874 0.566318 Fe
0.413898 0.981643 0.566318 Fe
0.106206 0.443182 0.566318 Fe
0.952360 0.673951 0.566318 Fe
0.798514 0.904720 0.566318 Fe
0.336975 0.597028 0.566318 Fe
0.183129 0.827797 0.566318 Fe
0.067745 0.250874 0.552289 Fe
0.913898 0.481643 0.552289 Fe
0.760052 0.712412 0.552289 Fe
0.606206 0.943182 0.552289 Fe
0.452360 0.173951 0.552289 Fe
0.298514 0.404720 0.552289 Fe
0.144668 0.635489 0.552289 Fe
0.990822 0.866258 0.552289 Fe
0.836975 0.097028 0.552289 Fe
0.683129 0.327797 0.552289 Fe
0.529283 0.558566 0.552289 Fe
0.375437 0.789335 0.552289 Fe
0.221591 0.020105 0.552289 Fe
0.029283 0.058566 0.538261 Fe
0.875437 0.289335 0.538261 Fe
0.260052 0.212412 0.538261 Fe
0.644668 0.135489 0.538261 Fe
0.490822 0.366258 0.538261 Fe
0.721591 0.520105 0.538261 Fe
0.567745 0.750874 0.538261 Fe
0.413898 0.981643 0.538261 Fe
0.106206 0.443182 0.538261 Fe
0.952360 0.673951 0.538261 Fe
0.798514 0.904720 0.538261 Fe
0.336975 0.597028 0.538261 Fe
0.183129 0.827797 0.538261 Fe
0.067745 0.250874 0.524232 Fe
0.452360 0.173951 0.524232 Fe
0.836975 0.097028 0.524232 Fe
0.683129 0.327797 0.524232 Fe
0.913898 0.481643 0.524232 Fe
0.760052 0.712412 0.524232 Fe
0.606206 0.943182 0.524232 Fe
0.298514 0.404720 0.524232 Fe
0.144668 0.635489 0.524232 Fe
0.990822 0.866258 0.524232 Fe
0.529283 0.558566 0.524232 Fe
0.375437 0.789335 0.524232 Fe
0.221591 0.020105 0.524232 Fe
0.029283 0.058566 0.510203 Fe
0.875437 0.289335 0.510203 Fe
0.721591 0.520105 0.510203 Fe
0.567745 0.750874 0.510203 Fe
0.413898 0.981643 0.510203 Fe
0.260052 0.212412 0.510203 Fe
0.106206 0.443182 0.510203 Fe
0.952360 0.673951 0.510203 Fe
0.798514 0.904720 0.510203 Fe
0.644668 0.135489 0.510203 Fe
0.490822 0.366258 0.510203 Fe
0.336975 0.597028 0.510203 Fe
0.183129 0.827797 0.510203 Fe
0.800000 0.900000 0.491602 Sb
0.200000 0.100000 0.491602 Sb
0.600000 0.300000 0.491602 Sb
0.000000 0.500000 0.491602 Sb
0.400000 0.700000 0.491602 Sb
0.500000 0.000000 0.459886 Sb
0.900000 0.200000 0.459886 Sb
0.300000 0.400000 0.459886 Sb
0.700000 0.600000 0.459886 Sb
0.100000 0.800000 0.459886 Sb
0.800000 0.900000 0.428169 Sb
0.200000 0.100000 0.428169 Sb
0.600000 0.300000 0.428169 Sb
0.000000 0.500000 0.428169 Sb
0.400000 0.700000 0.428169 Sb
0.500000 0.000000 0.396453 Sb
0.900000 0.200000 0.396453 Sb
0.300000 0.400000 0.396453 Sb
0.700000 0.600000 0.396453 Sb
0.100000 0.800000 0.396453 Sb
0.800000 0.900000 0.364737 Sb
0.200000 0.100000 0.364737 Sb
0.600000 0.300000 0.364737 Sb
0.000000 0.500000 0.364737 Sb
0.400000 0.700000 0.364737 Sb
0.500000 0.000000 0.333021 Sb
0.900000 0.200000 0.333021 Sb
0.300000 0.400000 0.333021 Sb
0.700000 0.600000 0.333021 Sb
0.100000 0.800000 0.333021 Sb
0.200000 0.100000 0.301304 Sb
0.600000 0.300000 0.301304 Sb
0.000000 0.500000 0.301304 Sb
0.800000 0.900000 0.301304 Sb
0.400000 0.700000 0.301304 Sb
0.500000 0.000000 0.269588 Sb
0.900000 0.200000 0.269588 Sb
0.300000 0.400000 0.269588 Sb
0.700000 0.600000 0.269588 Sb
0.100000 0.800000 0.269588 Sb
0.200000 0.100000 0.237872 Sb
0.600000 0.300000 0.237872 Sb
0.000000 0.500000 0.237872 Sb
0.800000 0.900000 0.237872 Sb
0.400000 0.700000 0.237872 Sb
0.500000 0.000000 0.206156 Sb
0.900000 0.200000 0.206156 Sb
0.300000 0.400000 0.206156 Sb
0.700000 0.600000 0.206156 Sb
0.100000 0.800000 0.206156 Sb
0.200000 0.100000 0.174439 Sb
0.600000 0.300000 0.174439 Sb
0.000000 0.500000 0.174439 Sb
0.800000 0.900000 0.174439 Sb
0.400000 0.700000 0.174439 Sb
0.500000 0.000000 0.142723 Sb
0.900000 0.200000 0.142723 Sb
0.300000 0.400000 0.142723 Sb
0.700000 0.600000 0.142723 Sb
0.100000 0.800000 0.142723 Sb
0.200000 0.100000 0.111007 Sb
0.600000 0.300000 0.111007 Sb
0.000000 0.500000 0.111007 Sb
0.800000 0.900000 0.111007 Sb
0.400000 0.700000 0.111007 Sb
0.500000 0.000000 0.079291 Sb
0.900000 0.200000 0.079291 Sb
0.300000 0.400000 0.079291 Sb
0.700000 0.600000 0.079291 Sb
0.100000 0.800000 0.079291 Sb
0.200000 0.100000 0.047574 Sb
0.600000 0.300000 0.047574 Sb
0.000000 0.500000 0.047574 Sb
0.800000 0.900000 0.047574 Sb
0.400000 0.700000 0.047574 Sb
0.944505 0.110990 0.019957 H
0.055495 0.889010 0.019957 H
0.655495 0.689010 0.019956 H
0.344505 0.310990 0.019956 H
0.144505 0.710990 0.019956 H
0.855495 0.289010 0.019956 H
0.255495 0.489010 0.019956 H
0.744505 0.510990 0.019955 H
0.455495 0.089010 0.019955 H
0.544505 0.910990 0.019955 H
