In55 Fe78 Sb55 H10
1.0
0.000000 0.000000 10.244831
-0.000000 10.244831 0.000000
-86.321550 -0.000000 0.000000
In Fe Sb H
55 78 55 10
direct
0.000000 0.000000 0.412837 In
0.400000 0.200000 0.412837 In
0.800000 0.400000 0.412837 In
0.200000 0.600000 0.412837 In
0.600000 0.800000 0.412837 In
0.700000 0.100000 0.375306 In
0.100000 0.300000 0.375306 In
0.500000 0.500000 0.375306 In
0.900000 0.700000 0.375306 In
0.300000 0.900000 0.375306 In
0.000000 0.000000 0.337775 In
0.400000 0.200000 0.337775 In
0.800000 0.400000 0.337775 In
0.200000 0.600000 0.337775 In
0.600000 0.800000 0.337775 In
0.700000 0.100000 0.300245 In
0.100000 0.300000 0.300245 In
0.500000 0.500000 0.300245 In
0.900000 0.700000 0.300245 In
0.300000 0.900000 0.300245 In
0.000000 0.000000 0.262714 In
0.400000 0.200000 0.262714 In
0.800000 0.400000 0.262714 In
0.200000 0.600000 0.262714 In
0.600000 0.800000 0.262714 In
0.700000 0.100000 0.225184 In
0.100000 0.300000 0.225184 In
0.500000 0.500000 0.225184 In
0.900000 0.700000 0.225184 In
0.300000 0.900000 0.225184 In
0.000000 0.000000 0.187653 In
0.400000 0.200000 0.187653 In
0.800000 0.400000 0.187653 In
0.200000 0.600000 0.187653 In
0.600000 0.800000 0.187653 In
0.700000 0.100000 0.150122 In
0.100000 0.300000 0.150122 In
0.500000 0.500000 0.150122 In
0.900000 0.700000 0.150122 In
0.300000 0.900000 0.150122 In
0.000000 0.000000 0.112592 In
0.400000 0.200000 0.112592 In
0.800000 0.400000 0.112592 In
0.200000 0.600000 0.112592 In
0.600000 0.800000 0.112592 In
0.700000 0.100000 0.075061 In
0.100000 0.300000 0.075061 In
0.500000 0.500000 0.075061 In
0.900000 0.700000 0.075061 In
0.300000 0.900000 0.075061 In
0.000000 0.000000 0.037531 In
0.400000 0.200000 0.037531 In
0.800000 0.400000 0.037531 In
0.200000 0.600000 0.037531 In
0.600000 0.800000 0.037531 In
0.067745 0.250874 0.536616 Fe
0.452360 0.173951 0.536616 Fe
0.836975 0.097028 0.536616 Fe
0.683129 0.327797 0.536616 Fe
0.913898 0.481643 0.536616 Fe
0.760052 0.712412 0.536616 Fe
0.606206 0.943182 0.536616 Fe
0.298514 0.404720 0.536616 Fe
0.144668 0.635489 0.536616 Fe
0.990822 0.866258 0.536616 Fe
0.529283 0.558566 0.536616 Fe
0.375437 0.789335 0.536616 Fe
0.221591 0.020105 0.536616 Fe
0.029283 0.058566 0.520016 Fe
0.875437 0.289335 0.520016 Fe
0.260052 0.212412 0.520016 Fe
0.644668 0.135489 0.520016 Fe
0.490822 0.366258 0.520016 Fe
0.721591 0.520105 0.520016 Fe
0.567745 0.750874 0.520016 Fe
0.413898 0.981643 0.520016 Fe
0.106206 0.443182 0.520016 Fe
0.952360 0.673951 0.520016 Fe
0.798514 0.904720 0.520016 Fe
0.336975 0.597028 0.520016 Fe
0.183129 0.827797 0.520016 Fe
0.067745 0.250874 0.503415 Fe
0.913898 0.481643 0.503415 Fe
0.760052 0.712412 0.503415 Fe
0.606206 0.943182 0.503415 Fe
0.452360 0.173951 0.503415 Fe
0.298514 0.404720 0.503415 Fe
0.144668 0.635489 0.503415 Fe
0.990822 0.866258 0.503415 Fe
0.836975 0.097028 0.503415 Fe
0.683129 0.327797 0.503415 Fe
0.529283 0.558566 0.503415 Fe
0.375437 0.789335 0.503415 Fe
0.221591 0.020105 0.503415 Fe
0.029283 0.058566 0.486814 Fe
0.875437 0.289335 0.486814 Fe
0.721591 0.520105 0.486814 Fe
0.260052 0.212412 0.486814 Fe
0.106206 0.443182 0.486814 Fe
0.952360 0.673951 0.486814 Fe
0.644668 0.135489 0.486814 Fe
0.490822 0.366258 0.486814 Fe
0.336975 0.597028 0.486814 Fe
0.567745 0.750874 0.486814 Fe
0.413898 0.981643 0.486814 Fe
0.798514 0.904720 0.486814 Fe
0.183129 0.827797 0.486814 Fe
0.067745 0.250874 0.470213 Fe
0.913898 0.481643 0.470213 Fe
0.452360 0.173951 0.470213 Fe
0.298514 0.404720 0.470213 Fe
0.144668 0.635489 0.470213 Fe
0.836975 0.097028 0.470213 Fe
0.683129 0.327797 0.470213 Fe
0.529283 0.558566 0.470213 Fe
0.760052 0.712412 0.470213 Fe
0.606206 0.943182 0.470213 Fe
0.990822 0.866258 0.470213 Fe
0.375437 0.789335 0.470213 Fe
0.221591 0.020105 0.470213 Fe
0.029283 0.058566 0.453613 Fe
0.875437 0.289335 0.453613 Fe
0.721591 0.520105 0.453613 Fe
0.260052 0.212412 0.453613 Fe
0.106206 0.443182 0.453613 Fe
0.952360 0.673951 0.453613 Fe
0.644668 0.135489 0.453613 Fe
0.490822 0.366258 0.453613 Fe
0.336975 0.597028 0.453613 Fe
0.567745 0.750874 0.453613 Fe
0.413898 0.981643 0.453613 Fe
0.798514 0.904720 0.453613 Fe
0.183129 0.827797 0.453613 Fe
0.200000 0.100000 0.431602 Sb
0.600000 0.300000 0.431602 Sb
0.000000 0.500000 0.431602 Sb
0.800000 0.900000 0.431602 Sb
0.400000 0.700000 0.431602 Sb
0.500000 0.000000 0.394071 Sb
0.900000 0.200000 0.394071 Sb
0.300000 0.400000 0.394071 Sb
0.700000 0.600000 0.394071 Sb
0.100000 0.800000 0.394071 Sb
0.200000 0.100000 0.356541 Sb
0.600000 0.300000 0.356541 Sb
0.000000 0.500000 0.356541 Sb
0.800000 0.900000 0.356541 Sb
0.400000 0.700000 0.356541 Sb
0.500000 0.000000 0.319010 Sb
0.900000 0.200000 0.319010 Sb
0.300000 0.400000 0.319010 Sb
0.700000 0.600000 0.319010 Sb
0.100000 0.800000 0.319010 Sb
0.200000 0.100000 0.281480 Sb
0.600000 0.300000 0.281480 Sb
0.000000 0.500000 0.281480 Sb
0.800000 0.900000 0.281480 Sb
0.400000 0.700000 0.281480 Sb
0.500000 0.000000 0.243949 Sb
0.900000 0.200000 0.243949 Sb
0.300000 0.400000 0.243949 Sb
0.700000 0.600000 0.243949 Sb
0.100000 0.800000 0.243949 Sb
0.200000 0.100000 0.206418 Sb
0.600000 0.300000 0.206418 Sb
0.000000 0.500000 0.206418 Sb
0.800000 0.900000 0.206418 Sb
0.400000 0.700000 0.206418 Sb
0.500000 0.000000 0.168888 Sb
0.900000 0.200000 0.168888 Sb
0.300000 0.400000 0.168888 Sb
0.700000 0.600000 0.168888 Sb
0.100000 0.800000 0.168888 Sb
0.200000 0.100000 0.131357 Sb
0.600000 0.300000 0.131357 Sb
0.000000 0.500000 0.131357 Sb
0.800000 0.900000 0.131357 Sb
0.400000 0.700000 0.131357 Sb
0.500000 0.000000 0.093827 Sb
0.900000 0.200000 0.093827 Sb
0.300000 0.400000 0.093827 Sb
0.700000 0.600000 0.093827 Sb
0.100000 0.800000 0.093827 Sb
0.200000 0.100000 0.056296 Sb
0.600000 0.300000 0.056296 Sb
0.000000 0.500000 0.056296 Sb
0.800000 0.900000 0.056296 Sb
0.400000 0.700000 0.056296 Sb
0.944505 0.110990 0.023616 H
0.055495 0.889010 0.023616 H
0.655495 0.689010 0.023614 H
0.344505 0.310990 0.023614 H
0.144505 0.710990 0.023614 H
0.855495 0.289010 0.023614 H
0.255495 0.489010 0.023614 H
0.744505 0.510990 0.023614 H
0.455495 0.089010 0.023614 H
0.544505 0.910990 0.023613 H
