Eu873 In738 Sb820 H358 S873
1.0
0.000000 0.000000 41.488403
-0.000000 41.488403 0.000000
-109.833150 -0.000000 0.000000
Eu In Sb H S
873 738 820 358 873
direct
0.000000 0.000000 0.517596 Eu
0.876289 0.278351 0.517596 Eu
0.010309 0.226804 0.517596 Eu
0.144330 0.175258 0.517596 Eu
0.278351 0.123711 0.517596 Eu
0.412371 0.072165 0.517596 Eu
0.546392 0.020619 0.517596 Eu
0.422680 0.298969 0.517596 Eu
0.556701 0.247423 0.517596 Eu
0.690722 0.195876 0.517596 Eu
0.824742 0.144330 0.517596 Eu
0.958763 0.092784 0.517596 Eu
0.092784 0.041237 0.517596 Eu
0.969072 0.319588 0.517596 Eu
0.103093 0.268041 0.517596 Eu
0.237113 0.216495 0.517596 Eu
0.371134 0.164948 0.517596 Eu
0.505155 0.113402 0.517596 Eu
0.639175 0.061856 0.517596 Eu
0.773196 0.010309 0.517596 Eu
0.649485 0.288660 0.517596 Eu
0.783505 0.237113 0.517596 Eu
0.917526 0.185567 0.517596 Eu
0.051546 0.134021 0.517596 Eu
0.185567 0.082474 0.517596 Eu
0.319588 0.030928 0.517596 Eu
0.195876 0.309278 0.517596 Eu
0.329897 0.257732 0.517596 Eu
0.463918 0.206186 0.517596 Eu
0.597938 0.154639 0.517596 Eu
0.731959 0.103093 0.517596 Eu
0.865979 0.051546 0.517596 Eu
0.134021 0.948454 0.517596 Eu
0.268041 0.896907 0.517596 Eu
0.402062 0.845361 0.517596 Eu
0.536082 0.793814 0.517596 Eu
0.670103 0.742268 0.517596 Eu
0.804124 0.690722 0.517596 Eu
0.938144 0.639175 0.517596 Eu
0.072165 0.587629 0.517596 Eu
0.206186 0.536082 0.517596 Eu
0.340206 0.484536 0.517596 Eu
0.474227 0.432990 0.517596 Eu
0.608247 0.381443 0.517596 Eu
0.742268 0.329897 0.517596 Eu
0.680412 0.969072 0.517596 Eu
0.814433 0.917526 0.517596 Eu
0.948454 0.865979 0.517596 Eu
0.082474 0.814433 0.517596 Eu
0.216495 0.762887 0.517596 Eu
0.350515 0.711340 0.517596 Eu
0.484536 0.659794 0.517596 Eu
0.618557 0.608247 0.517596 Eu
0.752577 0.556701 0.517596 Eu
0.886598 0.505155 0.517596 Eu
0.020619 0.453608 0.517596 Eu
0.154639 0.402062 0.517596 Eu
0.288660 0.350515 0.517596 Eu
0.226804 0.989691 0.517596 Eu
0.360825 0.938144 0.517596 Eu
0.494845 0.886598 0.517596 Eu
0.628866 0.835052 0.517596 Eu
0.762887 0.783505 0.517596 Eu
0.896907 0.731959 0.517596 Eu
0.030928 0.680412 0.517596 Eu
0.164948 0.628866 0.517596 Eu
0.298969 0.577320 0.517596 Eu
0.432990 0.525773 0.517596 Eu
0.567010 0.474227 0.517596 Eu
0.701031 0.422680 0.517596 Eu
0.835052 0.371134 0.517596 Eu
0.907216 0.958763 0.517596 Eu
0.041237 0.907216 0.517596 Eu
0.175258 0.855670 0.517596 Eu
0.309278 0.804124 0.517596 Eu
0.443299 0.752577 0.517596 Eu
0.577320 0.701031 0.517596 Eu
0.711340 0.649485 0.517596 Eu
0.845361 0.597938 0.517596 Eu
0.979381 0.546392 0.517596 Eu
0.113402 0.494845 0.517596 Eu
0.247423 0.443299 0.517596 Eu
0.381443 0.391753 0.517596 Eu
0.515464 0.340206 0.517596 Eu
0.453608 0.979381 0.517596 Eu
0.587629 0.927835 0.517596 Eu
0.721649 0.876289 0.517596 Eu
0.855670 0.824742 0.517596 Eu
0.989691 0.773196 0.517596 Eu
0.123711 0.721649 0.517596 Eu
0.257732 0.670103 0.517596 Eu
0.391753 0.618557 0.517596 Eu
0.525773 0.567010 0.517596 Eu
0.659794 0.515464 0.517596 Eu
0.793814 0.463918 0.517596 Eu
0.927835 0.412371 0.517596 Eu
0.061856 0.360825 0.517596 Eu
0.005155 0.613402 0.490427 Eu
0.139175 0.561856 0.490427 Eu
0.273196 0.510309 0.490427 Eu
0.407216 0.458763 0.490427 Eu
0.541237 0.407216 0.490427 Eu
0.675258 0.355670 0.490427 Eu
0.809278 0.304124 0.490427 Eu
0.943299 0.252577 0.490427 Eu
0.077320 0.201031 0.490427 Eu
0.211340 0.149485 0.490427 Eu
0.345361 0.097938 0.490427 Eu
0.479381 0.046392 0.490427 Eu
0.551546 0.634021 0.490427 Eu
0.685567 0.582474 0.490427 Eu
0.819588 0.530928 0.490427 Eu
0.953608 0.479381 0.490427 Eu
0.087629 0.427835 0.490427 Eu
0.221649 0.376289 0.490427 Eu
0.355670 0.324742 0.490427 Eu
0.489691 0.273196 0.490427 Eu
0.623711 0.221649 0.490427 Eu
0.757732 0.170103 0.490427 Eu
0.891753 0.118557 0.490427 Eu
0.025773 0.067010 0.490427 Eu
0.159794 0.015464 0.490427 Eu
0.231959 0.603093 0.490427 Eu
0.365979 0.551546 0.490427 Eu
0.500000 0.500000 0.490427 Eu
0.634021 0.448454 0.490427 Eu
0.768041 0.396907 0.490427 Eu
0.902062 0.345361 0.490427 Eu
0.036082 0.293814 0.490427 Eu
0.170103 0.242268 0.490427 Eu
0.304124 0.190722 0.490427 Eu
0.438144 0.139175 0.490427 Eu
0.572165 0.087629 0.490427 Eu
0.706186 0.036082 0.490427 Eu
0.778351 0.623711 0.490427 Eu
0.912371 0.572165 0.490427 Eu
0.046392 0.520619 0.490427 Eu
0.180412 0.469072 0.490427 Eu
0.314433 0.417526 0.490427 Eu
0.448454 0.365979 0.490427 Eu
0.582474 0.314433 0.490427 Eu
0.716495 0.262887 0.490427 Eu
0.850515 0.211340 0.490427 Eu
0.984536 0.159794 0.490427 Eu
0.118557 0.108247 0.490427 Eu
0.252577 0.056701 0.490427 Eu
0.386598 0.005155 0.490427 Eu
0.458763 0.592784 0.490427 Eu
0.592784 0.541237 0.490427 Eu
0.726804 0.489691 0.490427 Eu
0.860825 0.438144 0.490427 Eu
0.994845 0.386598 0.490427 Eu
0.128866 0.335052 0.490427 Eu
0.262887 0.283505 0.490427 Eu
0.396907 0.231959 0.490427 Eu
0.530928 0.180412 0.490427 Eu
0.664948 0.128866 0.490427 Eu
0.798969 0.077320 0.490427 Eu
0.932990 0.025773 0.490427 Eu
0.067010 0.974227 0.490427 Eu
0.201031 0.922680 0.490427 Eu
0.335052 0.871134 0.490427 Eu
0.469072 0.819588 0.490427 Eu
0.603093 0.768041 0.490427 Eu
0.737113 0.716495 0.490427 Eu
0.871134 0.664948 0.490427 Eu
0.613402 0.994845 0.490427 Eu
0.747423 0.943299 0.490427 Eu
0.881443 0.891753 0.490427 Eu
0.015464 0.840206 0.490427 Eu
0.149485 0.788660 0.490427 Eu
0.283505 0.737113 0.490427 Eu
0.417526 0.685567 0.490427 Eu
0.293814 0.963918 0.490427 Eu
0.427835 0.912371 0.490427 Eu
0.561856 0.860825 0.490427 Eu
0.695876 0.809278 0.490427 Eu
0.829897 0.757732 0.490427 Eu
0.963918 0.706186 0.490427 Eu
0.097938 0.654639 0.490427 Eu
0.840206 0.984536 0.490427 Eu
0.974227 0.932990 0.490427 Eu
0.108247 0.881443 0.490427 Eu
0.242268 0.829897 0.490427 Eu
0.376289 0.778351 0.490427 Eu
0.510309 0.726804 0.490427 Eu
0.644330 0.675258 0.490427 Eu
0.520619 0.953608 0.490427 Eu
0.654639 0.902062 0.490427 Eu
0.788660 0.850515 0.490427 Eu
0.922680 0.798969 0.490427 Eu
0.056701 0.747423 0.490427 Eu
0.190722 0.695876 0.490427 Eu
0.324742 0.644330 0.490427 Eu
0.000000 0.000000 0.463259 Eu
0.134021 0.948454 0.463259 Eu
0.268041 0.896907 0.463259 Eu
0.402062 0.845361 0.463259 Eu
0.536082 0.793814 0.463259 Eu
0.670103 0.742268 0.463259 Eu
0.804124 0.690722 0.463259 Eu
0.938144 0.639175 0.463259 Eu
0.072165 0.587629 0.463259 Eu
0.206186 0.536082 0.463259 Eu
0.340206 0.484536 0.463259 Eu
0.474227 0.432990 0.463259 Eu
0.608247 0.381443 0.463259 Eu
0.742268 0.329897 0.463259 Eu
0.876289 0.278351 0.463259 Eu
0.010309 0.226804 0.463259 Eu
0.144330 0.175258 0.463259 Eu
0.278351 0.123711 0.463259 Eu
0.412371 0.072165 0.463259 Eu
0.546392 0.020619 0.463259 Eu
0.680412 0.969072 0.463259 Eu
0.814433 0.917526 0.463259 Eu
0.948454 0.865979 0.463259 Eu
0.082474 0.814433 0.463259 Eu
0.216495 0.762887 0.463259 Eu
0.350515 0.711340 0.463259 Eu
0.484536 0.659794 0.463259 Eu
0.618557 0.608247 0.463259 Eu
0.752577 0.556701 0.463259 Eu
0.886598 0.505155 0.463259 Eu
0.020619 0.453608 0.463259 Eu
0.154639 0.402062 0.463259 Eu
0.288660 0.350515 0.463259 Eu
0.422680 0.298969 0.463259 Eu
0.556701 0.247423 0.463259 Eu
0.690722 0.195876 0.463259 Eu
0.824742 0.144330 0.463259 Eu
0.958763 0.092784 0.463259 Eu
0.092784 0.041237 0.463259 Eu
0.226804 0.989691 0.463259 Eu
0.360825 0.938144 0.463259 Eu
0.494845 0.886598 0.463259 Eu
0.628866 0.835052 0.463259 Eu
0.762887 0.783505 0.463259 Eu
0.896907 0.731959 0.463259 Eu
0.030928 0.680412 0.463259 Eu
0.164948 0.628866 0.463259 Eu
0.298969 0.577320 0.463259 Eu
0.432990 0.525773 0.463259 Eu
0.567010 0.474227 0.463259 Eu
0.701031 0.422680 0.463259 Eu
0.835052 0.371134 0.463259 Eu
0.969072 0.319588 0.463259 Eu
0.103093 0.268041 0.463259 Eu
0.237113 0.216495 0.463259 Eu
0.371134 0.164948 0.463259 Eu
0.505155 0.113402 0.463259 Eu
0.639175 0.061856 0.463259 Eu
0.773196 0.010309 0.463259 Eu
0.907216 0.958763 0.463259 Eu
0.041237 0.907216 0.463259 Eu
0.175258 0.855670 0.463259 Eu
0.309278 0.804124 0.463259 Eu
0.443299 0.752577 0.463259 Eu
0.577320 0.701031 0.463259 Eu
0.711340 0.649485 0.463259 Eu
0.845361 0.597938 0.463259 Eu
0.979381 0.546392 0.463259 Eu
0.113402 0.494845 0.463259 Eu
0.247423 0.443299 0.463259 Eu
0.381443 0.391753 0.463259 Eu
0.515464 0.340206 0.463259 Eu
0.649485 0.288660 0.463259 Eu
0.783505 0.237113 0.463259 Eu
0.917526 0.185567 0.463259 Eu
0.051546 0.134021 0.463259 Eu
0.185567 0.082474 0.463259 Eu
0.319588 0.030928 0.463259 Eu
0.453608 0.979381 0.463259 Eu
0.587629 0.927835 0.463259 Eu
0.721649 0.876289 0.463259 Eu
0.855670 0.824742 0.463259 Eu
0.989691 0.773196 0.463259 Eu
0.123711 0.721649 0.463259 Eu
0.257732 0.670103 0.463259 Eu
0.391753 0.618557 0.463259 Eu
0.525773 0.567010 0.463259 Eu
0.659794 0.515464 0.463259 Eu
0.793814 0.463918 0.463259 Eu
0.927835 0.412371 0.463259 Eu
0.061856 0.360825 0.463259 Eu
0.195876 0.309278 0.463259 Eu
0.329897 0.257732 0.463259 Eu
0.463918 0.206186 0.463259 Eu
0.597938 0.154639 0.463259 Eu
0.731959 0.103093 0.463259 Eu
0.865979 0.051546 0.463259 Eu
0.067010 0.974227 0.436090 Eu
0.201031 0.922680 0.436090 Eu
0.335052 0.871134 0.436090 Eu
0.469072 0.819588 0.436090 Eu
0.603093 0.768041 0.436090 Eu
0.737113 0.716495 0.436090 Eu
0.871134 0.664948 0.436090 Eu
0.005155 0.613402 0.436090 Eu
0.139175 0.561856 0.436090 Eu
0.273196 0.510309 0.436090 Eu
0.407216 0.458763 0.436090 Eu
0.541237 0.407216 0.436090 Eu
0.675258 0.355670 0.436090 Eu
0.809278 0.304124 0.436090 Eu
0.943299 0.252577 0.436090 Eu
0.077320 0.201031 0.436090 Eu
0.211340 0.149485 0.436090 Eu
0.345361 0.097938 0.436090 Eu
0.479381 0.046392 0.436090 Eu
0.613402 0.994845 0.436090 Eu
0.747423 0.943299 0.436090 Eu
0.881443 0.891753 0.436090 Eu
0.015464 0.840206 0.436090 Eu
0.149485 0.788660 0.436090 Eu
0.283505 0.737113 0.436090 Eu
0.417526 0.685567 0.436090 Eu
0.551546 0.634021 0.436090 Eu
0.685567 0.582474 0.436090 Eu
0.819588 0.530928 0.436090 Eu
0.953608 0.479381 0.436090 Eu
0.087629 0.427835 0.436090 Eu
0.221649 0.376289 0.436090 Eu
0.355670 0.324742 0.436090 Eu
0.489691 0.273196 0.436090 Eu
0.623711 0.221649 0.436090 Eu
0.757732 0.170103 0.436090 Eu
0.891753 0.118557 0.436090 Eu
0.025773 0.067010 0.436090 Eu
0.159794 0.015464 0.436090 Eu
0.293814 0.963918 0.436090 Eu
0.427835 0.912371 0.436090 Eu
0.561856 0.860825 0.436090 Eu
0.695876 0.809278 0.436090 Eu
0.829897 0.757732 0.436090 Eu
0.963918 0.706186 0.436090 Eu
0.097938 0.654639 0.436090 Eu
0.231959 0.603093 0.436090 Eu
0.365979 0.551546 0.436090 Eu
0.500000 0.500000 0.436090 Eu
0.634021 0.448454 0.436090 Eu
0.768041 0.396907 0.436090 Eu
0.902062 0.345361 0.436090 Eu
0.036082 0.293814 0.436090 Eu
0.170103 0.242268 0.436090 Eu
0.304124 0.190722 0.436090 Eu
0.438144 0.139175 0.436090 Eu
0.572165 0.087629 0.436090 Eu
0.706186 0.036082 0.436090 Eu
0.840206 0.984536 0.436090 Eu
0.974227 0.932990 0.436090 Eu
0.108247 0.881443 0.436090 Eu
0.242268 0.829897 0.436090 Eu
0.376289 0.778351 0.436090 Eu
0.510309 0.726804 0.436090 Eu
0.644330 0.675258 0.436090 Eu
0.778351 0.623711 0.436090 Eu
0.912371 0.572165 0.436090 Eu
0.046392 0.520619 0.436090 Eu
0.180412 0.469072 0.436090 Eu
0.314433 0.417526 0.436090 Eu
0.448454 0.365979 0.436090 Eu
0.582474 0.314433 0.436090 Eu
0.716495 0.262887 0.436090 Eu
0.850515 0.211340 0.436090 Eu
0.984536 0.159794 0.436090 Eu
0.118557 0.108247 0.436090 Eu
0.252577 0.056701 0.436090 Eu
0.386598 0.005155 0.436090 Eu
0.520619 0.953608 0.436090 Eu
0.654639 0.902062 0.436090 Eu
0.788660 0.850515 0.436090 Eu
0.922680 0.798969 0.436090 Eu
0.056701 0.747423 0.436090 Eu
0.190722 0.695876 0.436090 Eu
0.324742 0.644330 0.436090 Eu
0.458763 0.592784 0.436090 Eu
0.592784 0.541237 0.436090 Eu
0.726804 0.489691 0.436090 Eu
0.860825 0.438144 0.436090 Eu
0.994845 0.386598 0.436090 Eu
0.128866 0.335052 0.436090 Eu
0.262887 0.283505 0.436090 Eu
0.396907 0.231959 0.436090 Eu
0.530928 0.180412 0.436090 Eu
0.664948 0.128866 0.436090 Eu
0.798969 0.077320 0.436090 Eu
0.932990 0.025773 0.436090 Eu
0.000000 0.000000 0.408922 Eu
0.134021 0.948454 0.408922 Eu
0.268041 0.896907 0.408922 Eu
0.402062 0.845361 0.408922 Eu
0.536082 0.793814 0.408922 Eu
0.670103 0.742268 0.408922 Eu
0.804124 0.690722 0.408922 Eu
0.938144 0.639175 0.408922 Eu
0.072165 0.587629 0.408922 Eu
0.206186 0.536082 0.408922 Eu
0.340206 0.484536 0.408922 Eu
0.474227 0.432990 0.408922 Eu
0.608247 0.381443 0.408922 Eu
0.742268 0.329897 0.408922 Eu
0.876289 0.278351 0.408922 Eu
0.010309 0.226804 0.408922 Eu
0.144330 0.175258 0.408922 Eu
0.278351 0.123711 0.408922 Eu
0.412371 0.072165 0.408922 Eu
0.546392 0.020619 0.408922 Eu
0.680412 0.969072 0.408922 Eu
0.814433 0.917526 0.408922 Eu
0.948454 0.865979 0.408922 Eu
0.082474 0.814433 0.408922 Eu
0.216495 0.762887 0.408922 Eu
0.350515 0.711340 0.408922 Eu
0.484536 0.659794 0.408922 Eu
0.618557 0.608247 0.408922 Eu
0.752577 0.556701 0.408922 Eu
0.886598 0.505155 0.408922 Eu
0.020619 0.453608 0.408922 Eu
0.154639 0.402062 0.408922 Eu
0.288660 0.350515 0.408922 Eu
0.422680 0.298969 0.408922 Eu
0.556701 0.247423 0.408922 Eu
0.690722 0.195876 0.408922 Eu
0.824742 0.144330 0.408922 Eu
0.958763 0.092784 0.408922 Eu
0.092784 0.041237 0.408922 Eu
0.226804 0.989691 0.408922 Eu
0.360825 0.938144 0.408922 Eu
0.494845 0.886598 0.408922 Eu
0.628866 0.835052 0.408922 Eu
0.762887 0.783505 0.408922 Eu
0.896907 0.731959 0.408922 Eu
0.030928 0.680412 0.408922 Eu
0.164948 0.628866 0.408922 Eu
0.298969 0.577320 0.408922 Eu
0.432990 0.525773 0.408922 Eu
0.567010 0.474227 0.408922 Eu
0.701031 0.422680 0.408922 Eu
0.835052 0.371134 0.408922 Eu
0.969072 0.319588 0.408922 Eu
0.103093 0.268041 0.408922 Eu
0.237113 0.216495 0.408922 Eu
0.371134 0.164948 0.408922 Eu
0.505155 0.113402 0.408922 Eu
0.639175 0.061856 0.408922 Eu
0.773196 0.010309 0.408922 Eu
0.907216 0.958763 0.408922 Eu
0.041237 0.907216 0.408922 Eu
0.175258 0.855670 0.408922 Eu
0.309278 0.804124 0.408922 Eu
0.443299 0.752577 0.408922 Eu
0.577320 0.701031 0.408922 Eu
0.711340 0.649485 0.408922 Eu
0.845361 0.597938 0.408922 Eu
0.979381 0.546392 0.408922 Eu
0.113402 0.494845 0.408922 Eu
0.247423 0.443299 0.408922 Eu
0.381443 0.391753 0.408922 Eu
0.515464 0.340206 0.408922 Eu
0.649485 0.288660 0.408922 Eu
0.783505 0.237113 0.408922 Eu
0.917526 0.185567 0.408922 Eu
0.051546 0.134021 0.408922 Eu
0.185567 0.082474 0.408922 Eu
0.319588 0.030928 0.408922 Eu
0.453608 0.979381 0.408922 Eu
0.587629 0.927835 0.408922 Eu
0.721649 0.876289 0.408922 Eu
0.855670 0.824742 0.408922 Eu
0.989691 0.773196 0.408922 Eu
0.123711 0.721649 0.408922 Eu
0.257732 0.670103 0.408922 Eu
0.391753 0.618557 0.408922 Eu
0.525773 0.567010 0.408922 Eu
0.659794 0.515464 0.408922 Eu
0.793814 0.463918 0.408922 Eu
0.927835 0.412371 0.408922 Eu
0.061856 0.360825 0.408922 Eu
0.195876 0.309278 0.408922 Eu
0.329897 0.257732 0.408922 Eu
0.463918 0.206186 0.408922 Eu
0.597938 0.154639 0.408922 Eu
0.731959 0.103093 0.408922 Eu
0.865979 0.051546 0.408922 Eu
0.067010 0.974227 0.381753 Eu
0.201031 0.922680 0.381753 Eu
0.335052 0.871134 0.381753 Eu
0.469072 0.819588 0.381753 Eu
0.603093 0.768041 0.381753 Eu
0.737113 0.716495 0.381753 Eu
0.871134 0.664948 0.381753 Eu
0.005155 0.613402 0.381753 Eu
0.139175 0.561856 0.381753 Eu
0.273196 0.510309 0.381753 Eu
0.407216 0.458763 0.381753 Eu
0.541237 0.407216 0.381753 Eu
0.675258 0.355670 0.381753 Eu
0.809278 0.304124 0.381753 Eu
0.943299 0.252577 0.381753 Eu
0.077320 0.201031 0.381753 Eu
0.211340 0.149485 0.381753 Eu
0.345361 0.097938 0.381753 Eu
0.479381 0.046392 0.381753 Eu
0.613402 0.994845 0.381753 Eu
0.747423 0.943299 0.381753 Eu
0.881443 0.891753 0.381753 Eu
0.015464 0.840206 0.381753 Eu
0.149485 0.788660 0.381753 Eu
0.283505 0.737113 0.381753 Eu
0.417526 0.685567 0.381753 Eu
0.551546 0.634021 0.381753 Eu
0.685567 0.582474 0.381753 Eu
0.819588 0.530928 0.381753 Eu
0.953608 0.479381 0.381753 Eu
0.087629 0.427835 0.381753 Eu
0.221649 0.376289 0.381753 Eu
0.355670 0.324742 0.381753 Eu
0.489691 0.273196 0.381753 Eu
0.623711 0.221649 0.381753 Eu
0.757732 0.170103 0.381753 Eu
0.891753 0.118557 0.381753 Eu
0.025773 0.067010 0.381753 Eu
0.159794 0.015464 0.381753 Eu
0.293814 0.963918 0.381753 Eu
0.427835 0.912371 0.381753 Eu
0.561856 0.860825 0.381753 Eu
0.695876 0.809278 0.381753 Eu
0.829897 0.757732 0.381753 Eu
0.963918 0.706186 0.381753 Eu
0.097938 0.654639 0.381753 Eu
0.231959 0.603093 0.381753 Eu
0.365979 0.551546 0.381753 Eu
0.500000 0.500000 0.381753 Eu
0.634021 0.448454 0.381753 Eu
0.768041 0.396907 0.381753 Eu
0.902062 0.345361 0.381753 Eu
0.036082 0.293814 0.381753 Eu
0.170103 0.242268 0.381753 Eu
0.304124 0.190722 0.381753 Eu
0.438144 0.139175 0.381753 Eu
0.572165 0.087629 0.381753 Eu
0.706186 0.036082 0.381753 Eu
0.840206 0.984536 0.381753 Eu
0.974227 0.932990 0.381753 Eu
0.108247 0.881443 0.381753 Eu
0.242268 0.829897 0.381753 Eu
0.376289 0.778351 0.381753 Eu
0.510309 0.726804 0.381753 Eu
0.644330 0.675258 0.381753 Eu
0.778351 0.623711 0.381753 Eu
0.912371 0.572165 0.381753 Eu
0.046392 0.520619 0.381753 Eu
0.180412 0.469072 0.381753 Eu
0.314433 0.417526 0.381753 Eu
0.448454 0.365979 0.381753 Eu
0.582474 0.314433 0.381753 Eu
0.716495 0.262887 0.381753 Eu
0.850515 0.211340 0.381753 Eu
0.984536 0.159794 0.381753 Eu
0.118557 0.108247 0.381753 Eu
0.252577 0.056701 0.381753 Eu
0.386598 0.005155 0.381753 Eu
0.520619 0.953608 0.381753 Eu
0.654639 0.902062 0.381753 Eu
0.788660 0.850515 0.381753 Eu
0.922680 0.798969 0.381753 Eu
0.056701 0.747423 0.381753 Eu
0.190722 0.695876 0.381753 Eu
0.324742 0.644330 0.381753 Eu
0.458763 0.592784 0.381753 Eu
0.592784 0.541237 0.381753 Eu
0.726804 0.489691 0.381753 Eu
0.860825 0.438144 0.381753 Eu
0.994845 0.386598 0.381753 Eu
0.128866 0.335052 0.381753 Eu
0.262887 0.283505 0.381753 Eu
0.396907 0.231959 0.381753 Eu
0.530928 0.180412 0.381753 Eu
0.664948 0.128866 0.381753 Eu
0.798969 0.077320 0.381753 Eu
0.932990 0.025773 0.381753 Eu
0.000000 0.000000 0.354585 Eu
0.938144 0.639175 0.354585 Eu
0.072165 0.587629 0.354585 Eu
0.206186 0.536082 0.354585 Eu
0.340206 0.484536 0.354585 Eu
0.474227 0.432990 0.354585 Eu
0.608247 0.381443 0.354585 Eu
0.742268 0.329897 0.354585 Eu
0.876289 0.278351 0.354585 Eu
0.010309 0.226804 0.354585 Eu
0.144330 0.175258 0.354585 Eu
0.278351 0.123711 0.354585 Eu
0.412371 0.072165 0.354585 Eu
0.546392 0.020619 0.354585 Eu
0.618557 0.608247 0.354585 Eu
0.752577 0.556701 0.354585 Eu
0.886598 0.505155 0.354585 Eu
0.020619 0.453608 0.354585 Eu
0.154639 0.402062 0.354585 Eu
0.288660 0.350515 0.354585 Eu
0.422680 0.298969 0.354585 Eu
0.556701 0.247423 0.354585 Eu
0.690722 0.195876 0.354585 Eu
0.824742 0.144330 0.354585 Eu
0.958763 0.092784 0.354585 Eu
0.092784 0.041237 0.354585 Eu
0.164948 0.628866 0.354585 Eu
0.298969 0.577320 0.354585 Eu
0.432990 0.525773 0.354585 Eu
0.567010 0.474227 0.354585 Eu
0.701031 0.422680 0.354585 Eu
0.835052 0.371134 0.354585 Eu
0.969072 0.319588 0.354585 Eu
0.103093 0.268041 0.354585 Eu
0.237113 0.216495 0.354585 Eu
0.371134 0.164948 0.354585 Eu
0.505155 0.113402 0.354585 Eu
0.639175 0.061856 0.354585 Eu
0.773196 0.010309 0.354585 Eu
0.845361 0.597938 0.354585 Eu
0.979381 0.546392 0.354585 Eu
0.113402 0.494845 0.354585 Eu
0.247423 0.443299 0.354585 Eu
0.381443 0.391753 0.354585 Eu
0.515464 0.340206 0.354585 Eu
0.649485 0.288660 0.354585 Eu
0.783505 0.237113 0.354585 Eu
0.917526 0.185567 0.354585 Eu
0.051546 0.134021 0.354585 Eu
0.185567 0.082474 0.354585 Eu
0.319588 0.030928 0.354585 Eu
0.391753 0.618557 0.354585 Eu
0.525773 0.567010 0.354585 Eu
0.659794 0.515464 0.354585 Eu
0.793814 0.463918 0.354585 Eu
0.927835 0.412371 0.354585 Eu
0.061856 0.360825 0.354585 Eu
0.195876 0.309278 0.354585 Eu
0.329897 0.257732 0.354585 Eu
0.463918 0.206186 0.354585 Eu
0.597938 0.154639 0.354585 Eu
0.731959 0.103093 0.354585 Eu
0.865979 0.051546 0.354585 Eu
0.134021 0.948454 0.354585 Eu
0.268041 0.896907 0.354585 Eu
0.402062 0.845361 0.354585 Eu
0.536082 0.793814 0.354585 Eu
0.670103 0.742268 0.354585 Eu
0.804124 0.690722 0.354585 Eu
0.680412 0.969072 0.354585 Eu
0.814433 0.917526 0.354585 Eu
0.948454 0.865979 0.354585 Eu
0.082474 0.814433 0.354585 Eu
0.216495 0.762887 0.354585 Eu
0.350515 0.711340 0.354585 Eu
0.484536 0.659794 0.354585 Eu
0.226804 0.989691 0.354585 Eu
0.360825 0.938144 0.354585 Eu
0.494845 0.886598 0.354585 Eu
0.628866 0.835052 0.354585 Eu
0.762887 0.783505 0.354585 Eu
0.896907 0.731959 0.354585 Eu
0.030928 0.680412 0.354585 Eu
0.907216 0.958763 0.354585 Eu
0.041237 0.907216 0.354585 Eu
0.175258 0.855670 0.354585 Eu
0.309278 0.804124 0.354585 Eu
0.443299 0.752577 0.354585 Eu
0.577320 0.701031 0.354585 Eu
0.711340 0.649485 0.354585 Eu
0.453608 0.979381 0.354585 Eu
0.587629 0.927835 0.354585 Eu
0.721649 0.876289 0.354585 Eu
0.855670 0.824742 0.354585 Eu
0.989691 0.773196 0.354585 Eu
0.123711 0.721649 0.354585 Eu
0.257732 0.670103 0.354585 Eu
0.067010 0.974227 0.327416 Eu
0.201031 0.922680 0.327416 Eu
0.335052 0.871134 0.327416 Eu
0.469072 0.819588 0.327416 Eu
0.603093 0.768041 0.327416 Eu
0.737113 0.716495 0.327416 Eu
0.871134 0.664948 0.327416 Eu
0.005155 0.613402 0.327416 Eu
0.139175 0.561856 0.327416 Eu
0.273196 0.510309 0.327416 Eu
0.407216 0.458763 0.327416 Eu
0.541237 0.407216 0.327416 Eu
0.675258 0.355670 0.327416 Eu
0.809278 0.304124 0.327416 Eu
0.943299 0.252577 0.327416 Eu
0.077320 0.201031 0.327416 Eu
0.211340 0.149485 0.327416 Eu
0.345361 0.097938 0.327416 Eu
0.479381 0.046392 0.327416 Eu
0.613402 0.994845 0.327416 Eu
0.747423 0.943299 0.327416 Eu
0.881443 0.891753 0.327416 Eu
0.015464 0.840206 0.327416 Eu
0.149485 0.788660 0.327416 Eu
0.283505 0.737113 0.327416 Eu
0.417526 0.685567 0.327416 Eu
0.551546 0.634021 0.327416 Eu
0.685567 0.582474 0.327416 Eu
0.819588 0.530928 0.327416 Eu
0.953608 0.479381 0.327416 Eu
0.087629 0.427835 0.327416 Eu
0.221649 0.376289 0.327416 Eu
0.355670 0.324742 0.327416 Eu
0.489691 0.273196 0.327416 Eu
0.623711 0.221649 0.327416 Eu
0.757732 0.170103 0.327416 Eu
0.891753 0.118557 0.327416 Eu
0.025773 0.067010 0.327416 Eu
0.159794 0.015464 0.327416 Eu
0.293814 0.963918 0.327416 Eu
0.427835 0.912371 0.327416 Eu
0.561856 0.860825 0.327416 Eu
0.695876 0.809278 0.327416 Eu
0.829897 0.757732 0.327416 Eu
0.963918 0.706186 0.327416 Eu
0.097938 0.654639 0.327416 Eu
0.231959 0.603093 0.327416 Eu
0.365979 0.551546 0.327416 Eu
0.500000 0.500000 0.327416 Eu
0.634021 0.448454 0.327416 Eu
0.768041 0.396907 0.327416 Eu
0.902062 0.345361 0.327416 Eu
0.036082 0.293814 0.327416 Eu
0.170103 0.242268 0.327416 Eu
0.304124 0.190722 0.327416 Eu
0.438144 0.139175 0.327416 Eu
0.572165 0.087629 0.327416 Eu
0.706186 0.036082 0.327416 Eu
0.840206 0.984536 0.327416 Eu
0.974227 0.932990 0.327416 Eu
0.108247 0.881443 0.327416 Eu
0.242268 0.829897 0.327416 Eu
0.376289 0.778351 0.327416 Eu
0.510309 0.726804 0.327416 Eu
0.644330 0.675258 0.327416 Eu
0.778351 0.623711 0.327416 Eu
0.912371 0.572165 0.327416 Eu
0.046392 0.520619 0.327416 Eu
0.180412 0.469072 0.327416 Eu
0.314433 0.417526 0.327416 Eu
0.448454 0.365979 0.327416 Eu
0.582474 0.314433 0.327416 Eu
0.716495 0.262887 0.327416 Eu
0.850515 0.211340 0.327416 Eu
0.984536 0.159794 0.327416 Eu
0.118557 0.108247 0.327416 Eu
0.252577 0.056701 0.327416 Eu
0.386598 0.005155 0.327416 Eu
0.520619 0.953608 0.327416 Eu
0.654639 0.902062 0.327416 Eu
0.788660 0.850515 0.327416 Eu
0.922680 0.798969 0.327416 Eu
0.056701 0.747423 0.327416 Eu
0.190722 0.695876 0.327416 Eu
0.324742 0.644330 0.327416 Eu
0.458763 0.592784 0.327416 Eu
0.592784 0.541237 0.327416 Eu
0.726804 0.489691 0.327416 Eu
0.860825 0.438144 0.327416 Eu
0.994845 0.386598 0.327416 Eu
0.128866 0.335052 0.327416 Eu
0.262887 0.283505 0.327416 Eu
0.396907 0.231959 0.327416 Eu
0.530928 0.180412 0.327416 Eu
0.664948 0.128866 0.327416 Eu
0.798969 0.077320 0.327416 Eu
0.932990 0.025773 0.327416 Eu
0.000000 0.000000 0.300248 Eu
0.938144 0.639175 0.300248 Eu
0.072165 0.587629 0.300248 Eu
0.206186 0.536082 0.300248 Eu
0.340206 0.484536 0.300248 Eu
0.474227 0.432990 0.300248 Eu
0.608247 0.381443 0.300248 Eu
0.742268 0.329897 0.300248 Eu
0.876289 0.278351 0.300248 Eu
0.010309 0.226804 0.300248 Eu
0.144330 0.175258 0.300248 Eu
0.278351 0.123711 0.300248 Eu
0.412371 0.072165 0.300248 Eu
0.546392 0.020619 0.300248 Eu
0.618557 0.608247 0.300248 Eu
0.752577 0.556701 0.300248 Eu
0.886598 0.505155 0.300248 Eu
0.020619 0.453608 0.300248 Eu
0.154639 0.402062 0.300248 Eu
0.288660 0.350515 0.300248 Eu
0.422680 0.298969 0.300248 Eu
0.556701 0.247423 0.300248 Eu
0.690722 0.195876 0.300248 Eu
0.824742 0.144330 0.300248 Eu
0.958763 0.092784 0.300248 Eu
0.092784 0.041237 0.300248 Eu
0.164948 0.628866 0.300248 Eu
0.298969 0.577320 0.300248 Eu
0.432990 0.525773 0.300248 Eu
0.567010 0.474227 0.300248 Eu
0.701031 0.422680 0.300248 Eu
0.835052 0.371134 0.300248 Eu
0.969072 0.319588 0.300248 Eu
0.103093 0.268041 0.300248 Eu
0.237113 0.216495 0.300248 Eu
0.371134 0.164948 0.300248 Eu
0.505155 0.113402 0.300248 Eu
0.639175 0.061856 0.300248 Eu
0.773196 0.010309 0.300248 Eu
0.845361 0.597938 0.300248 Eu
0.979381 0.546392 0.300248 Eu
0.113402 0.494845 0.300248 Eu
0.247423 0.443299 0.300248 Eu
0.381443 0.391753 0.300248 Eu
0.515464 0.340206 0.300248 Eu
0.649485 0.288660 0.300248 Eu
0.783505 0.237113 0.300248 Eu
0.917526 0.185567 0.300248 Eu
0.051546 0.134021 0.300248 Eu
0.185567 0.082474 0.300248 Eu
0.319588 0.030928 0.300248 Eu
0.391753 0.618557 0.300248 Eu
0.525773 0.567010 0.300248 Eu
0.659794 0.515464 0.300248 Eu
0.793814 0.463918 0.300248 Eu
0.927835 0.412371 0.300248 Eu
0.061856 0.360825 0.300248 Eu
0.195876 0.309278 0.300248 Eu
0.329897 0.257732 0.300248 Eu
0.463918 0.206186 0.300248 Eu
0.597938 0.154639 0.300248 Eu
0.731959 0.103093 0.300248 Eu
0.865979 0.051546 0.300248 Eu
0.134021 0.948454 0.300248 Eu
0.268041 0.896907 0.300248 Eu
0.402062 0.845361 0.300248 Eu
0.536082 0.793814 0.300248 Eu
0.670103 0.742268 0.300248 Eu
0.804124 0.690722 0.300248 Eu
0.680412 0.969072 0.300248 Eu
0.814433 0.917526 0.300248 Eu
0.948454 0.865979 0.300248 Eu
0.082474 0.814433 0.300248 Eu
0.216495 0.762887 0.300248 Eu
0.350515 0.711340 0.300248 Eu
0.484536 0.659794 0.300248 Eu
0.226804 0.989691 0.300248 Eu
0.360825 0.938144 0.300248 Eu
0.494845 0.886598 0.300248 Eu
0.628866 0.835052 0.300248 Eu
0.762887 0.783505 0.300248 Eu
0.896907 0.731959 0.300248 Eu
0.030928 0.680412 0.300248 Eu
0.907216 0.958763 0.300248 Eu
0.041237 0.907216 0.300248 Eu
0.175258 0.855670 0.300248 Eu
0.309278 0.804124 0.300248 Eu
0.443299 0.752577 0.300248 Eu
0.577320 0.701031 0.300248 Eu
0.711340 0.649485 0.300248 Eu
0.453608 0.979381 0.300248 Eu
0.587629 0.927835 0.300248 Eu
0.721649 0.876289 0.300248 Eu
0.855670 0.824742 0.300248 Eu
0.989691 0.773196 0.300248 Eu
0.123711 0.721649 0.300248 Eu
0.257732 0.670103 0.300248 Eu
0.548780 0.560976 0.265469 In
0.670732 0.463415 0.265469 In
0.792683 0.365854 0.265469 In
0.914634 0.268293 0.265469 In
0.036585 0.170732 0.265469 In
0.158537 0.073171 0.265469 In
0.768293 0.585366 0.265469 In
0.890244 0.487805 0.265469 In
0.012195 0.390244 0.265469 In
0.134146 0.292683 0.265469 In
0.256098 0.195122 0.265469 In
0.378049 0.097561 0.265469 In
0.500000 0.000000 0.265469 In
0.987805 0.609756 0.265469 In
0.109756 0.512195 0.265469 In
0.231707 0.414634 0.265469 In
0.353659 0.317073 0.265469 In
0.475610 0.219512 0.265469 In
0.597561 0.121951 0.265469 In
0.719512 0.024390 0.265469 In
0.207317 0.634146 0.265469 In
0.329268 0.536585 0.265469 In
0.451220 0.439024 0.265469 In
0.573171 0.341463 0.265469 In
0.695122 0.243902 0.265469 In
0.817073 0.146341 0.265469 In
0.939024 0.048780 0.265469 In
0.439024 0.548780 0.265469 In
0.560976 0.451220 0.265469 In
0.682927 0.353659 0.265469 In
0.804878 0.256098 0.265469 In
0.926829 0.158537 0.265469 In
0.048780 0.060976 0.265469 In
0.658537 0.573171 0.265469 In
0.780488 0.475610 0.265469 In
0.902439 0.378049 0.265469 In
0.024390 0.280488 0.265469 In
0.146341 0.182927 0.265469 In
0.268293 0.085366 0.265469 In
0.878049 0.597561 0.265469 In
0.000000 0.500000 0.265469 In
0.121951 0.402439 0.265469 In
0.243902 0.304878 0.265469 In
0.365854 0.207317 0.265469 In
0.487805 0.109756 0.265469 In
0.609756 0.012195 0.265469 In
0.097561 0.621951 0.265469 In
0.219512 0.524390 0.265469 In
0.341463 0.426829 0.265469 In
0.463415 0.329268 0.265469 In
0.585366 0.231707 0.265469 In
0.707317 0.134146 0.265469 In
0.829268 0.036585 0.265469 In
0.060976 0.951220 0.265469 In
0.182927 0.853659 0.265469 In
0.304878 0.756098 0.265469 In
0.426829 0.658537 0.265469 In
0.280488 0.975610 0.265469 In
0.402439 0.878049 0.265469 In
0.524390 0.780488 0.265469 In
0.646341 0.682927 0.265469 In
0.621951 0.902439 0.265469 In
0.743902 0.804878 0.265469 In
0.865854 0.707317 0.265469 In
0.841463 0.926829 0.265469 In
0.963415 0.829268 0.265469 In
0.085366 0.731707 0.265469 In
0.951220 0.939024 0.265469 In
0.073171 0.841463 0.265469 In
0.195122 0.743902 0.265469 In
0.317073 0.646341 0.265469 In
0.170732 0.963415 0.265469 In
0.292683 0.865854 0.265469 In
0.414634 0.768293 0.265469 In
0.536585 0.670732 0.265469 In
0.390244 0.987805 0.265469 In
0.512195 0.890244 0.265469 In
0.634146 0.792683 0.265469 In
0.756098 0.695122 0.265469 In
0.731707 0.914634 0.265469 In
0.853659 0.817073 0.265469 In
0.975610 0.719512 0.265469 In
0.000000 0.000000 0.235972 In
0.487805 0.609756 0.235972 In
0.609756 0.512195 0.235972 In
0.731707 0.414634 0.235972 In
0.853659 0.317073 0.235972 In
0.975610 0.219512 0.235972 In
0.097561 0.121951 0.235972 In
0.219512 0.024390 0.235972 In
0.707317 0.634146 0.235972 In
0.829268 0.536585 0.235972 In
0.951220 0.439024 0.235972 In
0.073171 0.341463 0.235972 In
0.195122 0.243902 0.235972 In
0.317073 0.146341 0.235972 In
0.439024 0.048780 0.235972 In
0.048780 0.560976 0.235972 In
0.170732 0.463415 0.235972 In
0.292683 0.365854 0.235972 In
0.414634 0.268293 0.235972 In
0.536585 0.170732 0.235972 In
0.658537 0.073171 0.235972 In
0.268293 0.585366 0.235972 In
0.390244 0.487805 0.235972 In
0.512195 0.390244 0.235972 In
0.634146 0.292683 0.235972 In
0.756098 0.195122 0.235972 In
0.878049 0.097561 0.235972 In
0.378049 0.597561 0.235972 In
0.500000 0.500000 0.235972 In
0.621951 0.402439 0.235972 In
0.743902 0.304878 0.235972 In
0.865854 0.207317 0.235972 In
0.987805 0.109756 0.235972 In
0.109756 0.012195 0.235972 In
0.597561 0.621951 0.235972 In
0.719512 0.524390 0.235972 In
0.841463 0.426829 0.235972 In
0.963415 0.329268 0.235972 In
0.085366 0.231707 0.235972 In