Eu648 In549 Sb610 H266 S648
1.0
0.000000 0.000000 35.783656
-0.000000 35.783656 0.000000
-109.833150 -0.000000 0.000000
Eu In Sb H S
648 549 610 266 648
direct
0.000000 0.000000 0.517596 Eu
0.833333 0.000000 0.517596 Eu
0.666667 0.000000 0.517596 Eu
0.500000 0.000000 0.517596 Eu
0.333333 1.000000 0.517596 Eu
0.166667 1.000000 0.517596 Eu
0.833333 0.166667 0.517596 Eu
0.666667 0.166667 0.517596 Eu
0.500000 0.166667 0.517596 Eu
0.333333 0.166667 0.517596 Eu
0.166667 0.166667 0.517596 Eu
1.000000 0.166667 0.517596 Eu
0.666667 0.333333 0.517596 Eu
0.500000 0.333333 0.517596 Eu
0.333333 0.333333 0.517596 Eu
0.166667 0.333333 0.517596 Eu
1.000000 0.333333 0.517596 Eu
0.833333 0.333333 0.517596 Eu
0.500000 0.500000 0.517596 Eu
0.333333 0.500000 0.517596 Eu
0.166667 0.500000 0.517596 Eu
0.000000 0.500000 0.517596 Eu
0.833333 0.500000 0.517596 Eu
0.666667 0.500000 0.517596 Eu
0.333333 0.666667 0.517596 Eu
0.166667 0.666667 0.517596 Eu
0.000000 0.666667 0.517596 Eu
0.833333 0.666667 0.517596 Eu
0.666667 0.666667 0.517596 Eu
0.500000 0.666667 0.517596 Eu
0.166667 0.833333 0.517596 Eu
0.000000 0.833333 0.517596 Eu
0.833333 0.833333 0.517596 Eu
0.666667 0.833333 0.517596 Eu
0.500000 0.833333 0.517596 Eu
0.333333 0.833333 0.517596 Eu
0.916667 0.083333 0.517596 Eu
0.750000 0.083333 0.517596 Eu
0.583333 0.083333 0.517596 Eu
0.416667 0.083333 0.517596 Eu
0.250000 0.083333 0.517596 Eu
0.083333 0.083333 0.517596 Eu
0.750000 0.250000 0.517596 Eu
0.583333 0.250000 0.517596 Eu
0.416667 0.250000 0.517596 Eu
0.250000 0.250000 0.517596 Eu
0.083333 0.250000 0.517596 Eu
0.916667 0.250000 0.517596 Eu
0.583333 0.416667 0.517596 Eu
0.416667 0.416667 0.517596 Eu
0.250000 0.416667 0.517596 Eu
0.083333 0.416667 0.517596 Eu
0.916667 0.416667 0.517596 Eu
0.750000 0.416667 0.517596 Eu
0.416667 0.583333 0.517596 Eu
0.250000 0.583333 0.517596 Eu
0.083333 0.583333 0.517596 Eu
0.916667 0.583333 0.517596 Eu
0.750000 0.583333 0.517596 Eu
0.583333 0.583333 0.517596 Eu
0.250000 0.750000 0.517596 Eu
0.083333 0.750000 0.517596 Eu
0.916667 0.750000 0.517596 Eu
0.750000 0.750000 0.517596 Eu
0.583333 0.750000 0.517596 Eu
0.416667 0.750000 0.517596 Eu
0.083333 0.916667 0.517596 Eu
0.916667 0.916667 0.517596 Eu
0.750000 0.916667 0.517596 Eu
0.583333 0.916667 0.517596 Eu
0.416667 0.916667 0.517596 Eu
0.250000 0.916667 0.517596 Eu
0.916667 0.000000 0.490427 Eu
0.750000 0.000000 0.490427 Eu
0.583333 0.000000 0.490427 Eu
0.416667 1.000000 0.490427 Eu
0.250000 1.000000 0.490427 Eu
0.083333 0.000000 0.490427 Eu
0.750000 0.166667 0.490427 Eu
0.583333 0.166667 0.490427 Eu
0.416667 0.166667 0.490427 Eu
0.250000 0.166667 0.490427 Eu
0.083333 0.166667 0.490427 Eu
0.916667 0.166667 0.490427 Eu
0.583333 0.333333 0.490427 Eu
0.416667 0.333333 0.490427 Eu
0.250000 0.333333 0.490427 Eu
0.083333 0.333333 0.490427 Eu
0.916667 0.333333 0.490427 Eu
0.750000 0.333333 0.490427 Eu
0.416667 0.500000 0.490427 Eu
0.250000 0.500000 0.490427 Eu
0.083333 0.500000 0.490427 Eu
0.916667 0.500000 0.490427 Eu
0.750000 0.500000 0.490427 Eu
0.583333 0.500000 0.490427 Eu
0.250000 0.666667 0.490427 Eu
0.083333 0.666667 0.490427 Eu
0.916667 0.666667 0.490427 Eu
0.750000 0.666667 0.490427 Eu
0.583333 0.666667 0.490427 Eu
0.416667 0.666667 0.490427 Eu
0.083333 0.833333 0.490427 Eu
0.916667 0.833333 0.490427 Eu
0.750000 0.833333 0.490427 Eu
0.583333 0.833333 0.490427 Eu
0.416667 0.833333 0.490427 Eu
0.250000 0.833333 0.490427 Eu
1.000000 0.083333 0.490427 Eu
0.833333 0.083333 0.490427 Eu
0.666667 0.083333 0.490427 Eu
0.500000 0.083333 0.490427 Eu
0.333333 0.083333 0.490427 Eu
0.166667 0.083333 0.490427 Eu
0.833333 0.250000 0.490427 Eu
0.666667 0.250000 0.490427 Eu
0.500000 0.250000 0.490427 Eu
0.333333 0.250000 0.490427 Eu
0.166667 0.250000 0.490427 Eu
0.000000 0.250000 0.490427 Eu
0.666667 0.416667 0.490427 Eu
0.500000 0.416667 0.490427 Eu
0.333333 0.416667 0.490427 Eu
0.166667 0.416667 0.490427 Eu
1.000000 0.416667 0.490427 Eu
0.833333 0.416667 0.490427 Eu
0.500000 0.583333 0.490427 Eu
0.333333 0.583333 0.490427 Eu
0.166667 0.583333 0.490427 Eu
0.000000 0.583333 0.490427 Eu
0.833333 0.583333 0.490427 Eu
0.666667 0.583333 0.490427 Eu
0.333333 0.750000 0.490427 Eu
0.166667 0.750000 0.490427 Eu
0.000000 0.750000 0.490427 Eu
0.833333 0.750000 0.490427 Eu
0.666667 0.750000 0.490427 Eu
0.500000 0.750000 0.490427 Eu
0.166667 0.916667 0.490427 Eu
0.000000 0.916667 0.490427 Eu
0.833333 0.916667 0.490427 Eu
0.666667 0.916667 0.490427 Eu
0.500000 0.916667 0.490427 Eu
0.333333 0.916667 0.490427 Eu
0.000000 0.000000 0.463259 Eu
0.833333 0.000000 0.463259 Eu
0.666667 0.000000 0.463259 Eu
0.500000 0.000000 0.463259 Eu
0.833333 0.166667 0.463259 Eu
0.666667 0.166667 0.463259 Eu
0.500000 0.166667 0.463259 Eu
0.333333 0.166667 0.463259 Eu
0.166667 0.166667 0.463259 Eu
1.000000 0.166667 0.463259 Eu
0.666667 0.333333 0.463259 Eu
0.500000 0.333333 0.463259 Eu
0.333333 0.333333 0.463259 Eu
0.166667 0.333333 0.463259 Eu
1.000000 0.333333 0.463259 Eu
0.833333 0.333333 0.463259 Eu
0.500000 0.500000 0.463259 Eu
0.333333 0.500000 0.463259 Eu
0.166667 0.500000 0.463259 Eu
0.000000 0.500000 0.463259 Eu
0.833333 0.500000 0.463259 Eu
0.666667 0.500000 0.463259 Eu
0.916667 0.083333 0.463259 Eu
0.750000 0.083333 0.463259 Eu
0.583333 0.083333 0.463259 Eu
0.416667 0.083333 0.463259 Eu
0.250000 0.083333 0.463259 Eu
0.083333 0.083333 0.463259 Eu
0.750000 0.250000 0.463259 Eu
0.583333 0.250000 0.463259 Eu
0.416667 0.250000 0.463259 Eu
0.250000 0.250000 0.463259 Eu
0.083333 0.250000 0.463259 Eu
0.916667 0.250000 0.463259 Eu
0.583333 0.416667 0.463259 Eu
0.416667 0.416667 0.463259 Eu
0.250000 0.416667 0.463259 Eu
0.083333 0.416667 0.463259 Eu
0.916667 0.416667 0.463259 Eu
0.750000 0.416667 0.463259 Eu
0.416667 0.583333 0.463259 Eu
0.250000 0.583333 0.463259 Eu
0.083333 0.583333 0.463259 Eu
0.916667 0.583333 0.463259 Eu
0.750000 0.583333 0.463259 Eu
0.583333 0.583333 0.463259 Eu
0.333333 1.000000 0.463259 Eu
0.166667 1.000000 0.463259 Eu
0.333333 0.666667 0.463259 Eu
0.166667 0.666667 0.463259 Eu
0.000000 0.666667 0.463259 Eu
0.833333 0.666667 0.463259 Eu
0.666667 0.666667 0.463259 Eu
0.500000 0.666667 0.463259 Eu
0.166667 0.833333 0.463259 Eu
0.000000 0.833333 0.463259 Eu
0.833333 0.833333 0.463259 Eu
0.666667 0.833333 0.463259 Eu
0.500000 0.833333 0.463259 Eu
0.333333 0.833333 0.463259 Eu
0.250000 0.750000 0.463259 Eu
0.083333 0.750000 0.463259 Eu
0.916667 0.750000 0.463259 Eu
0.750000 0.750000 0.463259 Eu
0.583333 0.750000 0.463259 Eu
0.416667 0.750000 0.463259 Eu
0.083333 0.916667 0.463259 Eu
0.916667 0.916667 0.463259 Eu
0.750000 0.916667 0.463259 Eu
0.583333 0.916667 0.463259 Eu
0.416667 0.916667 0.463259 Eu
0.250000 0.916667 0.463259 Eu
0.916667 0.000000 0.436090 Eu
0.750000 0.000000 0.436090 Eu
0.583333 0.000000 0.436090 Eu
0.083333 0.000000 0.436090 Eu
0.750000 0.166667 0.436090 Eu
0.583333 0.166667 0.436090 Eu
0.416667 0.166667 0.436090 Eu
0.250000 0.166667 0.436090 Eu
0.083333 0.166667 0.436090 Eu
0.916667 0.166667 0.436090 Eu
0.583333 0.333333 0.436090 Eu
0.416667 0.333333 0.436090 Eu
0.250000 0.333333 0.436090 Eu
0.083333 0.333333 0.436090 Eu
0.916667 0.333333 0.436090 Eu
0.750000 0.333333 0.436090 Eu
0.416667 0.500000 0.436090 Eu
0.250000 0.500000 0.436090 Eu
0.083333 0.500000 0.436090 Eu
0.916667 0.500000 0.436090 Eu
0.750000 0.500000 0.436090 Eu
0.583333 0.500000 0.436090 Eu
1.000000 0.083333 0.436090 Eu
0.833333 0.083333 0.436090 Eu
0.666667 0.083333 0.436090 Eu
0.500000 0.083333 0.436090 Eu
0.333333 0.083333 0.436090 Eu
0.166667 0.083333 0.436090 Eu
0.833333 0.250000 0.436090 Eu
0.666667 0.250000 0.436090 Eu
0.500000 0.250000 0.436090 Eu
0.333333 0.250000 0.436090 Eu
0.166667 0.250000 0.436090 Eu
0.000000 0.250000 0.436090 Eu
0.666667 0.416667 0.436090 Eu
0.500000 0.416667 0.436090 Eu
0.333333 0.416667 0.436090 Eu
0.166667 0.416667 0.436090 Eu
1.000000 0.416667 0.436090 Eu
0.833333 0.416667 0.436090 Eu
0.500000 0.583333 0.436090 Eu
0.333333 0.583333 0.436090 Eu
0.166667 0.583333 0.436090 Eu
0.000000 0.583333 0.436090 Eu
0.833333 0.583333 0.436090 Eu
0.666667 0.583333 0.436090 Eu
0.416667 1.000000 0.436090 Eu
0.250000 1.000000 0.436090 Eu
0.250000 0.666667 0.436090 Eu
0.083333 0.666667 0.436090 Eu
0.916667 0.666667 0.436090 Eu
0.750000 0.666667 0.436090 Eu
0.583333 0.666667 0.436090 Eu
0.416667 0.666667 0.436090 Eu
0.083333 0.833333 0.436090 Eu
0.916667 0.833333 0.436090 Eu
0.750000 0.833333 0.436090 Eu
0.583333 0.833333 0.436090 Eu
0.416667 0.833333 0.436090 Eu
0.250000 0.833333 0.436090 Eu
0.333333 0.750000 0.436090 Eu
0.166667 0.750000 0.436090 Eu
0.000000 0.750000 0.436090 Eu
0.833333 0.750000 0.436090 Eu
0.666667 0.750000 0.436090 Eu
0.500000 0.750000 0.436090 Eu
0.166667 0.916667 0.436090 Eu
0.000000 0.916667 0.436090 Eu
0.833333 0.916667 0.436090 Eu
0.666667 0.916667 0.436090 Eu
0.500000 0.916667 0.436090 Eu
0.333333 0.916667 0.436090 Eu
0.000000 0.000000 0.408922 Eu
0.833333 0.000000 0.408922 Eu
0.666667 0.000000 0.408922 Eu
0.500000 0.000000 0.408922 Eu
0.833333 0.166667 0.408922 Eu
0.666667 0.166667 0.408922 Eu
0.500000 0.166667 0.408922 Eu
0.333333 0.166667 0.408922 Eu
0.166667 0.166667 0.408922 Eu
1.000000 0.166667 0.408922 Eu
0.666667 0.333333 0.408922 Eu
0.500000 0.333333 0.408922 Eu
0.333333 0.333333 0.408922 Eu
0.166667 0.333333 0.408922 Eu
1.000000 0.333333 0.408922 Eu
0.833333 0.333333 0.408922 Eu
0.500000 0.500000 0.408922 Eu
0.333333 0.500000 0.408922 Eu
0.166667 0.500000 0.408922 Eu
0.000000 0.500000 0.408922 Eu
0.833333 0.500000 0.408922 Eu
0.666667 0.500000 0.408922 Eu
0.916667 0.083333 0.408922 Eu
0.750000 0.083333 0.408922 Eu
0.583333 0.083333 0.408922 Eu
0.416667 0.083333 0.408922 Eu
0.250000 0.083333 0.408922 Eu
0.083333 0.083333 0.408922 Eu
0.750000 0.250000 0.408922 Eu
0.583333 0.250000 0.408922 Eu
0.416667 0.250000 0.408922 Eu
0.250000 0.250000 0.408922 Eu
0.083333 0.250000 0.408922 Eu
0.916667 0.250000 0.408922 Eu
0.583333 0.416667 0.408922 Eu
0.416667 0.416667 0.408922 Eu
0.250000 0.416667 0.408922 Eu
0.083333 0.416667 0.408922 Eu
0.916667 0.416667 0.408922 Eu
0.750000 0.416667 0.408922 Eu
0.416667 0.583333 0.408922 Eu
0.250000 0.583333 0.408922 Eu
0.083333 0.583333 0.408922 Eu
0.916667 0.583333 0.408922 Eu
0.750000 0.583333 0.408922 Eu
0.583333 0.583333 0.408922 Eu
0.333333 1.000000 0.408922 Eu
0.166667 1.000000 0.408922 Eu
0.333333 0.666667 0.408922 Eu
0.166667 0.666667 0.408922 Eu
0.000000 0.666667 0.408922 Eu
0.833333 0.666667 0.408922 Eu
0.666667 0.666667 0.408922 Eu
0.500000 0.666667 0.408922 Eu
0.166667 0.833333 0.408922 Eu
0.000000 0.833333 0.408922 Eu
0.833333 0.833333 0.408922 Eu
0.666667 0.833333 0.408922 Eu
0.500000 0.833333 0.408922 Eu
0.333333 0.833333 0.408922 Eu
0.250000 0.750000 0.408922 Eu
0.083333 0.750000 0.408922 Eu
0.916667 0.750000 0.408922 Eu
0.750000 0.750000 0.408922 Eu
0.583333 0.750000 0.408922 Eu
0.416667 0.750000 0.408922 Eu
0.083333 0.916667 0.408922 Eu
0.916667 0.916667 0.408922 Eu
0.750000 0.916667 0.408922 Eu
0.583333 0.916667 0.408922 Eu
0.416667 0.916667 0.408922 Eu
0.250000 0.916667 0.408922 Eu
0.916667 0.000000 0.381753 Eu
0.750000 0.000000 0.381753 Eu
0.583333 0.000000 0.381753 Eu
0.083333 0.000000 0.381753 Eu
0.750000 0.166667 0.381753 Eu
0.583333 0.166667 0.381753 Eu
0.416667 0.166667 0.381753 Eu
0.250000 0.166667 0.381753 Eu
0.083333 0.166667 0.381753 Eu
0.916667 0.166667 0.381753 Eu
0.583333 0.333333 0.381753 Eu
0.416667 0.333333 0.381753 Eu
0.250000 0.333333 0.381753 Eu
0.083333 0.333333 0.381753 Eu
0.916667 0.333333 0.381753 Eu
0.750000 0.333333 0.381753 Eu
0.416667 0.500000 0.381753 Eu
0.250000 0.500000 0.381753 Eu
0.083333 0.500000 0.381753 Eu
0.916667 0.500000 0.381753 Eu
0.750000 0.500000 0.381753 Eu
0.583333 0.500000 0.381753 Eu
1.000000 0.083333 0.381753 Eu
0.833333 0.083333 0.381753 Eu
0.666667 0.083333 0.381753 Eu
0.500000 0.083333 0.381753 Eu
0.333333 0.083333 0.381753 Eu
0.166667 0.083333 0.381753 Eu
0.833333 0.250000 0.381753 Eu
0.666667 0.250000 0.381753 Eu
0.500000 0.250000 0.381753 Eu
0.333333 0.250000 0.381753 Eu
0.166667 0.250000 0.381753 Eu
0.000000 0.250000 0.381753 Eu
0.666667 0.416667 0.381753 Eu
0.500000 0.416667 0.381753 Eu
0.333333 0.416667 0.381753 Eu
0.166667 0.416667 0.381753 Eu
1.000000 0.416667 0.381753 Eu
0.833333 0.416667 0.381753 Eu
0.500000 0.583333 0.381753 Eu
0.333333 0.583333 0.381753 Eu
0.166667 0.583333 0.381753 Eu
0.000000 0.583333 0.381753 Eu
0.833333 0.583333 0.381753 Eu
0.666667 0.583333 0.381753 Eu
0.416667 1.000000 0.381753 Eu
0.250000 1.000000 0.381753 Eu
0.250000 0.666667 0.381753 Eu
0.083333 0.666667 0.381753 Eu
0.916667 0.666667 0.381753 Eu
0.750000 0.666667 0.381753 Eu
0.583333 0.666667 0.381753 Eu
0.416667 0.666667 0.381753 Eu
0.083333 0.833333 0.381753 Eu
0.916667 0.833333 0.381753 Eu
0.750000 0.833333 0.381753 Eu
0.583333 0.833333 0.381753 Eu
0.416667 0.833333 0.381753 Eu
0.250000 0.833333 0.381753 Eu
0.333333 0.750000 0.381753 Eu
0.166667 0.750000 0.381753 Eu
0.000000 0.750000 0.381753 Eu
0.833333 0.750000 0.381753 Eu
0.666667 0.750000 0.381753 Eu
0.500000 0.750000 0.381753 Eu
0.166667 0.916667 0.381753 Eu
0.000000 0.916667 0.381753 Eu
0.833333 0.916667 0.381753 Eu
0.666667 0.916667 0.381753 Eu
0.500000 0.916667 0.381753 Eu
0.333333 0.916667 0.381753 Eu
0.000000 0.000000 0.354585 Eu
0.833333 0.000000 0.354585 Eu
0.666667 0.000000 0.354585 Eu
0.500000 0.000000 0.354585 Eu
0.333333 1.000000 0.354585 Eu
0.166667 1.000000 0.354585 Eu
0.833333 0.166667 0.354585 Eu
0.666667 0.166667 0.354585 Eu
0.500000 0.166667 0.354585 Eu
0.333333 0.166667 0.354585 Eu
0.166667 0.166667 0.354585 Eu
0.000000 0.166667 0.354585 Eu
0.666667 0.333333 0.354585 Eu
0.500000 0.333333 0.354585 Eu
0.333333 0.333333 0.354585 Eu
0.166667 0.333333 0.354585 Eu
0.000000 0.333333 0.354585 Eu
0.833333 0.333333 0.354585 Eu
0.500000 0.500000 0.354585 Eu
0.333333 0.500000 0.354585 Eu
0.166667 0.500000 0.354585 Eu
0.000000 0.500000 0.354585 Eu
0.833333 0.500000 0.354585 Eu
0.666667 0.500000 0.354585 Eu
0.333333 0.666667 0.354585 Eu
0.166667 0.666667 0.354585 Eu
0.000000 0.666667 0.354585 Eu
0.833333 0.666667 0.354585 Eu
0.666667 0.666667 0.354585 Eu
0.500000 0.666667 0.354585 Eu
0.166667 0.833333 0.354585 Eu
0.000000 0.833333 0.354585 Eu
0.833333 0.833333 0.354585 Eu
0.666667 0.833333 0.354585 Eu
0.500000 0.833333 0.354585 Eu
0.333333 0.833333 0.354585 Eu
0.916667 0.083333 0.354585 Eu
0.750000 0.083333 0.354585 Eu
0.583333 0.083333 0.354585 Eu
0.416667 0.083333 0.354585 Eu
0.250000 0.083333 0.354585 Eu
0.083333 0.083333 0.354585 Eu
0.750000 0.250000 0.354585 Eu
0.583333 0.250000 0.354585 Eu
0.416667 0.250000 0.354585 Eu
0.250000 0.250000 0.354585 Eu
0.083333 0.250000 0.354585 Eu
0.916667 0.250000 0.354585 Eu
0.583333 0.416667 0.354585 Eu
0.416667 0.416667 0.354585 Eu
0.250000 0.416667 0.354585 Eu
0.083333 0.416667 0.354585 Eu
0.916667 0.416667 0.354585 Eu
0.750000 0.416667 0.354585 Eu
0.416667 0.583333 0.354585 Eu
0.250000 0.583333 0.354585 Eu
0.083333 0.583333 0.354585 Eu
0.916667 0.583333 0.354585 Eu
0.750000 0.583333 0.354585 Eu
0.583333 0.583333 0.354585 Eu
0.250000 0.750000 0.354585 Eu
0.083333 0.750000 0.354585 Eu
0.916667 0.750000 0.354585 Eu
0.750000 0.750000 0.354585 Eu
0.583333 0.750000 0.354585 Eu
0.416667 0.750000 0.354585 Eu
0.083333 0.916667 0.354585 Eu
0.916667 0.916667 0.354585 Eu
0.750000 0.916667 0.354585 Eu
0.583333 0.916667 0.354585 Eu
0.416667 0.916667 0.354585 Eu
0.250000 0.916667 0.354585 Eu
0.916667 0.000000 0.327416 Eu
0.750000 0.000000 0.327416 Eu
0.583333 0.000000 0.327416 Eu
0.083333 0.000000 0.327416 Eu
0.750000 0.166667 0.327416 Eu
0.583333 0.166667 0.327416 Eu
0.416667 0.166667 0.327416 Eu
0.250000 0.166667 0.327416 Eu
0.083333 0.166667 0.327416 Eu
0.916667 0.166667 0.327416 Eu
0.583333 0.333333 0.327416 Eu
0.416667 0.333333 0.327416 Eu
0.250000 0.333333 0.327416 Eu
0.083333 0.333333 0.327416 Eu
0.916667 0.333333 0.327416 Eu
0.750000 0.333333 0.327416 Eu
0.416667 0.500000 0.327416 Eu
0.250000 0.500000 0.327416 Eu
0.083333 0.500000 0.327416 Eu
0.916667 0.500000 0.327416 Eu
0.750000 0.500000 0.327416 Eu
0.583333 0.500000 0.327416 Eu
1.000000 0.083333 0.327416 Eu
0.833333 0.083333 0.327416 Eu
0.666667 0.083333 0.327416 Eu
0.500000 0.083333 0.327416 Eu
0.333333 0.083333 0.327416 Eu
0.166667 0.083333 0.327416 Eu
0.833333 0.250000 0.327416 Eu
0.666667 0.250000 0.327416 Eu
0.500000 0.250000 0.327416 Eu
0.333333 0.250000 0.327416 Eu
0.166667 0.250000 0.327416 Eu
0.000000 0.250000 0.327416 Eu
0.666667 0.416667 0.327416 Eu
0.500000 0.416667 0.327416 Eu
0.333333 0.416667 0.327416 Eu
0.166667 0.416667 0.327416 Eu
0.000000 0.416667 0.327416 Eu
0.833333 0.416667 0.327416 Eu
0.500000 0.583333 0.327416 Eu
0.333333 0.583333 0.327416 Eu
0.166667 0.583333 0.327416 Eu
0.000000 0.583333 0.327416 Eu
0.833333 0.583333 0.327416 Eu
0.666667 0.583333 0.327416 Eu
0.416667 1.000000 0.327416 Eu
0.250000 1.000000 0.327416 Eu
0.250000 0.666667 0.327416 Eu
0.083333 0.666667 0.327416 Eu
0.916667 0.666667 0.327416 Eu
0.750000 0.666667 0.327416 Eu
0.583333 0.666667 0.327416 Eu
0.416667 0.666667 0.327416 Eu
0.083333 0.833333 0.327416 Eu
0.916667 0.833333 0.327416 Eu
0.750000 0.833333 0.327416 Eu
0.583333 0.833333 0.327416 Eu
0.416667 0.833333 0.327416 Eu
0.250000 0.833333 0.327416 Eu
0.333333 0.750000 0.327416 Eu
0.166667 0.750000 0.327416 Eu
0.000000 0.750000 0.327416 Eu
0.833333 0.750000 0.327416 Eu
0.666667 0.750000 0.327416 Eu
0.500000 0.750000 0.327416 Eu
0.166667 0.916667 0.327416 Eu
0.000000 0.916667 0.327416 Eu
0.833333 0.916667 0.327416 Eu
0.666667 0.916667 0.327416 Eu
0.500000 0.916667 0.327416 Eu
0.333333 0.916667 0.327416 Eu
0.000000 0.000000 0.300248 Eu
0.833333 0.000000 0.300248 Eu
0.666667 0.000000 0.300248 Eu
0.500000 0.000000 0.300248 Eu
0.833333 0.166667 0.300248 Eu
0.666667 0.166667 0.300248 Eu
0.500000 0.166667 0.300248 Eu
0.333333 0.166667 0.300248 Eu
0.166667 0.166667 0.300248 Eu
0.000000 0.166667 0.300248 Eu
0.666667 0.333333 0.300248 Eu
0.500000 0.333333 0.300248 Eu
0.333333 0.333333 0.300248 Eu
0.166667 0.333333 0.300248 Eu
0.000000 0.333333 0.300248 Eu
0.833333 0.333333 0.300248 Eu
0.500000 0.500000 0.300248 Eu
0.333333 0.500000 0.300248 Eu
0.166667 0.500000 0.300248 Eu
0.000000 0.500000 0.300248 Eu
0.833333 0.500000 0.300248 Eu
0.666667 0.500000 0.300248 Eu
0.916667 0.083333 0.300248 Eu
0.750000 0.083333 0.300248 Eu
0.583333 0.083333 0.300248 Eu
0.416667 0.083333 0.300248 Eu
0.250000 0.083333 0.300248 Eu
0.083333 0.083333 0.300248 Eu
0.750000 0.250000 0.300248 Eu
0.583333 0.250000 0.300248 Eu
0.416667 0.250000 0.300248 Eu
0.250000 0.250000 0.300248 Eu
0.083333 0.250000 0.300248 Eu
0.916667 0.250000 0.300248 Eu
0.583333 0.416667 0.300248 Eu
0.416667 0.416667 0.300248 Eu
0.250000 0.416667 0.300248 Eu
0.083333 0.416667 0.300248 Eu
0.916667 0.416667 0.300248 Eu
0.750000 0.416667 0.300248 Eu
0.416667 0.583333 0.300248 Eu
0.250000 0.583333 0.300248 Eu
0.083333 0.583333 0.300248 Eu
0.916667 0.583333 0.300248 Eu
0.750000 0.583333 0.300248 Eu
0.583333 0.583333 0.300248 Eu
0.333333 1.000000 0.300248 Eu
0.166667 1.000000 0.300248 Eu
0.333333 0.666667 0.300248 Eu
0.166667 0.666667 0.300248 Eu
0.000000 0.666667 0.300248 Eu
0.833333 0.666667 0.300248 Eu
0.666667 0.666667 0.300248 Eu
0.500000 0.666667 0.300248 Eu
0.166667 0.833333 0.300248 Eu
0.000000 0.833333 0.300248 Eu
0.833333 0.833333 0.300248 Eu
0.666667 0.833333 0.300248 Eu
0.500000 0.833333 0.300248 Eu
0.333333 0.833333 0.300248 Eu
0.250000 0.750000 0.300248 Eu
0.083333 0.750000 0.300248 Eu
0.916667 0.750000 0.300248 Eu
0.750000 0.750000 0.300248 Eu
0.583333 0.750000 0.300248 Eu
0.416667 0.750000 0.300248 Eu
0.083333 0.916667 0.300248 Eu
0.916667 0.916667 0.300248 Eu
0.750000 0.916667 0.300248 Eu
0.583333 0.916667 0.300248 Eu
0.416667 0.916667 0.300248 Eu
0.250000 0.916667 0.300248 Eu
0.959016 0.549180 0.265469 In
0.942623 0.368852 0.265469 In
0.926230 0.188525 0.265469 In
0.909836 0.008197 0.265469 In
0.860656 0.467213 0.265469 In
0.844262 0.286885 0.265469 In
0.827869 0.106557 0.265469 In
0.778689 0.565574 0.265469 In
0.762295 0.385246 0.265469 In
0.745902 0.204918 0.265469 In
0.729508 0.024590 0.265469 In
0.680328 0.483607 0.265469 In
0.663934 0.303279 0.265469 In
0.647541 0.122951 0.265469 In
0.598361 0.581967 0.265469 In
0.581967 0.401639 0.265469 In
0.565574 0.221311 0.265469 In
0.549180 0.040984 0.265469 In
0.500000 0.500000 0.265469 In
0.483607 0.319672 0.265469 In
0.467213 0.139344 0.265469 In
0.418033 0.598361 0.265469 In
0.401639 0.418033 0.265469 In
0.385246 0.237705 0.265469 In
0.368852 0.057377 0.265469 In
0.319672 0.516393 0.265469 In
0.303279 0.336066 0.265469 In
0.286885 0.155738 0.265469 In
0.237705 0.614754 0.265469 In
0.221311 0.434426 0.265469 In
0.204918 0.254098 0.265469 In
0.188525 0.073770 0.265469 In
0.139344 0.532787 0.265469 In
0.122951 0.352459 0.265469 In
0.106557 0.172131 0.265469 In
0.057377 0.631148 0.265469 In
0.040984 0.450820 0.265469 In
0.024590 0.270492 0.265469 In
0.008197 0.090164 0.265469 In
0.991803 0.909836 0.265469 In
0.975410 0.729508 0.265469 In
0.893443 0.827869 0.265469 In
0.877049 0.647541 0.265469 In
0.811475 0.926230 0.265469 In
0.795082 0.745902 0.265469 In
0.713115 0.844262 0.265469 In
0.696721 0.663934 0.265469 In
0.631148 0.942623 0.265469 In
0.614754 0.762295 0.265469 In
0.532787 0.860656 0.265469 In
0.516393 0.680328 0.265469 In
0.450820 0.959016 0.265469 In
0.434426 0.778689 0.265469 In
0.352459 0.877049 0.265469 In
0.336066 0.696721 0.265469 In
0.270492 0.975410 0.265469 In
0.254098 0.795082 0.265469 In
0.172131 0.893443 0.265469 In
0.155738 0.713115 0.265469 In
0.090164 0.991803 0.265469 In
0.073770 0.811475 0.265469 In
0.000000 0.000000 0.235972 In
0.967213 0.639344 0.235972 In
0.950820 0.459016 0.235972 In
0.934426 0.278689 0.235972 In
0.918033 0.098361 0.235972 In
0.868852 0.557377 0.235972 In
0.852459 0.377049 0.235972 In
0.836066 0.196721 0.235972 In
0.819672 0.016393 0.235972 In
0.770492 0.475410 0.235972 In
0.754098 0.295082 0.235972 In
0.737705 0.114754 0.235972 In
0.688525 0.573770 0.235972 In
0.672131 0.393443 0.235972 In
0.655738 0.213115 0.235972 In
0.639344 0.032787 0.235972 In
0.590164 0.491803 0.235972 In
0.573770 0.311475 0.235972 In
0.557377 0.131148 0.235972 In
0.508197 0.590164 0.235972 In
0.491803 0.409836 0.235972 In
0.475410 0.229508 0.235972 In
0.459016 0.049180 0.235972 In
0.409836 0.508197 0.235972 In
0.393443 0.327869 0.235972 In
0.377049 0.147541 0.235972 In
0.327869 0.606557 0.235972 In
0.311475 0.426230 0.235972 In
0.295082 0.245902 0.235972 In
0.278689 0.065574 0.235972 In
0.229508 0.524590 0.235972 In
0.213115 0.344262 0.235972 In
0.196721 0.163934 0.235972 In
0.147541 0.622951 0.235972 In
0.131148 0.442623 0.235972 In
0.114754 0.262295 0.235972 In
0.098361 0.081967 0.235972 In
0.049180 0.540984 0.235972 In
0.032787 0.360656 0.235972 In
0.016393 0.180328 0.235972 In
0.983607 0.819672 0.235972 In
0.901639 0.918033 0.235972 In
0.885246 0.737705 0.235972 In
0.803279 0.836066 0.235972 In
0.786885 0.655738 0.235972 In
0.721311 0.934426 0.235972 In
0.704918 0.754098 0.235972 In
0.622951 0.852459 0.235972 In
0.606557 0.672131 0.235972 In
0.540984 0.950820 0.235972 In
0.524590 0.770492 0.235972 In
0.442623 0.868852 0.235972 In
0.426230 0.688525 0.235972 In
0.360656 0.967213 0.235972 In
0.344262 0.786885 0.235972 In
0.262295 0.885246 0.235972 In
0.245902 0.704918 0.235972 In
0.180328 0.983607 0.235972 In
0.163934 0.803279 0.235972 In
0.081967 0.901639 0.235972 In
0.065574 0.721311 0.235972 In
0.959016 0.549180 0.206476 In
0.942623 0.368852 0.206476 In
0.926230 0.188525 0.206476 In
0.909836 0.008197 0.206476 In
0.860656 0.467213 0.206476 In
0.844262 0.286885 0.206476 In
0.827869 0.106557 0.206476 In
0.778689 0.565574 0.206476 In
0.762295 0.385246 0.206476 In
0.745902 0.204918 0.206476 In
0.729508 0.024590 0.206476 In
0.680328 0.483607 0.206476 In
0.663934 0.303279 0.206476 In
0.647541 0.122951 0.206476 In
0.598361 0.581967 0.206476 In
0.581967 0.401639 0.206476 In
0.565574 0.221311 0.206476 In
0.549180 0.040984 0.206476 In
0.500000 0.500000 0.206476 In
0.483607 0.319672 0.206476 In
0.467213 0.139344 0.206476 In
0.418033 0.598361 0.206476 In
0.401639 0.418033 0.206476 In
0.385246 0.237705 0.206476 In
0.368852 0.057377 0.206476 In
0.319672 0.516393 0.206476 In
0.303279 0.336066 0.206476 In
0.286885 0.155738 0.206476 In
0.237705 0.614754 0.206476 In
0.221311 0.434426 0.206476 In
0.204918 0.254098 0.206476 In
0.188525 0.073770 0.206476 In
0.139344 0.532787 0.206476 In
0.122951 0.352459 0.206476 In
0.106557 0.172131 0.206476 In
0.057377 0.631148 0.206476 In
0.040984 0.450820 0.206476 In
0.024590 0.270492 0.206476 In
0.008197 0.090164 0.206476 In
0.991803 0.909836 0.206476 In
0.975410 0.729508 0.206476 In
0.893443 0.827869 0.206476 In
0.877049 0.647541 0.206476 In
0.811475 0.926230 0.206476 In
0.795082 0.745902 0.206476 In
0.713115 0.844262 0.206476 In
0.696721 0.663934 0.206476 In
0.631148 0.942623 0.206476 In
0.614754 0.762295 0.206476 In
0.532787 0.860656 0.206476 In
0.516393 0.680328 0.206476 In
0.450820 0.959016 0.206476 In
0.434426 0.778689 0.206476 In
0.352459 0.877049 0.206476 In
0.336066 0.696721 0.206476 In
0.270492 0.975410 0.206476 In
0.254098 0.795082 0.206476 In
0.172131 0.893443 0.206476 In
0.155738 0.713115 0.206476 In
0.090164 0.991803 0.206476 In
0.073770 0.811475 0.206476 In
0.000000 0.000000 0.176979 In
0.967213 0.639344 0.176979 In
0.950820 0.459016 0.176979 In
0.934426 0.278689 0.176979 In
0.918033 0.098361 0.176979 In
0.868852 0.557377 0.176979 In
0.852459 0.377049 0.176979 In
0.836066 0.196721 0.176979 In
0.819672 0.016393 0.176979 In
0.770492 0.475410 0.176979 In
0.754098 0.295082 0.176979 In
0.737705 0.114754 0.176979 In
0.688525 0.573770 0.176979 In
0.672131 0.393443 0.176979 In
0.655738 0.213115 0.176979 In
0.639344 0.032787 0.176979 In
0.590164 0.491803 0.176979 In
0.573770 0.311475 0.176979 In
0.557377 0.131148 0.176979 In
0.508197 0.590164 0.176979 In
0.491803 0.409836 0.176979 In
0.475410 0.229508 0.176979 In
0.459016 0.049180 0.176979 In
0.409836 0.508197 0.176979 In
0.393443 0.327869 0.176979 In
0.377049 0.147541 0.176979 In
0.327869 0.606557 0.176979 In
0.311475 0.426230 0.176979 In
0.295082 0.245902 0.176979 In
0.278689 0.065574 0.176979 In
0.229508 0.524590 0.176979 In
0.213115 0.344262 0.176979 In
0.196721 0.163934 0.176979 In
0.147541 0.622951 0.176979 In
0.131148 0.442623 0.176979 In
0.114754 0.262295 0.176979 In
0.098361 0.081967 0.176979 In
0.049180 0.540984 0.176979 In
0.032787 0.360656 0.176979 In
0.016393 0.180328 0.176979 In
0.983607 0.819672 0.176979 In
0.901639 0.918033 0.176979 In
0.885246 0.737705 0.176979 In
0.803279 0.836066 0.176979 In
0.786885 0.655738 0.176979 In
0.721311 0.934426 0.176979 In
0.704918 0.754098 0.176979 In
0.622951 0.852459 0.176979 In
0.606557 0.672131 0.176979 In
0.540984 0.950820 0.176979 In
0.524590 0.770492 0.176979 In
0.442623 0.868852 0.176979 In
0.426230 0.688525 0.176979 In
0.360656 0.967213 0.176979 In
0.344262 0.786885 0.176979 In
0.262295 0.885246 0.176979 In
0.245902 0.704918 0.176979 In
0.180328 0.983607 0.176979 In
0.163934 0.803279 0.176979 In
0.081967 0.901639 0.176979 In
0.065574 0.721311 0.176979 In
0.959016 0.549180 0.147483 In
0.942623 0.368852 0.147483 In
0.926230 0.188525 0.147483 In
0.909836 0.008197 0.147483 In
0.860656 0.467213 0.147483 In
0.844262 0.286885 0.147483 In
0.827869 0.106557 0.147483 In
0.778689 0.565574 0.147483 In
0.762295 0.385246 0.147483 In
0.745902 0.204918 0.147483 In
0.729508 0.024590 0.147483 In
0.680328 0.483607 0.147483 In
0.663934 0.303279 0.147483 In
0.647541 0.122951 0.147483 In
0.598361 0.581967 0.147483 In
0.581967 0.401639 0.147483 In
0.565574 0.221311 0.147483 In
0.549180 0.040984 0.147483 In
0.500000 0.500000 0.147483 In
0.483607 0.319672 0.147483 In
0.467213 0.139344 0.147483 In
0.418033 0.598361 0.147483 In
0.401639 0.418033 0.147483 In
0.385246 0.237705 0.147483 In
0.368852 0.057377 0.147483 In
0.319672 0.516393 0.147483 In
0.303279 0.336066 0.147483 In
0.286885 0.155738 0.147483 In
0.237705 0.614754 0.147483 In
0.221311 0.434426 0.147483 In
0.204918 0.254098 0.147483 In
0.188525 0.073770 0.147483 In
0.139344 0.532787 0.147483 In
0.122951 0.352459 0.147483 In
0.106557 0.172131 0.147483 In
0.057377 0.631148 0.147483 In
0.040984 0.450820 0.147483 In
0.024590 0.270492 0.147483 In
0.008197 0.090164 0.147483 In
0.991803 0.909836 0.147483 In
0.975410 0.729508 0.147483 In
0.893443 0.827869 0.147483 In
0.877049 0.647541 0.147483 In
0.811475 0.926230 0.147483 In
0.795082 0.745902 0.147483 In
0.713115 0.844262 0.147483 In
0.696721 0.663934 0.147483 In
0.631148 0.942623 0.147483 In
0.614754 0.762295 0.147483 In
0.532787 0.860656 0.147483 In
0.516393 0.680328 0.147483 In
0.450820 0.959016 0.147483 In
0.434426 0.778689 0.147483 In
0.352459 0.877049 0.147483 In
0.336066 0.696721 0.147483 In
0.270492 0.975410 0.147483 In
0.254098 0.795082 0.147483 In
0.172131 0.893443 0.147483 In
0.155738 0.713115 0.147483 In
0.090164 0.991803 0.147483 In
0.073770 0.811475 0.147483 In
0.000000 0.000000 0.117986 In
0.967213 0.639344 0.117986 In
0.950820 0.459016 0.117986 In
0.934426 0.278689 0.117986 In
0.918033 0.098361 0.117986 In
0.868852 0.557377 0.117986 In
0.852459 0.377049 0.117986 In
0.836066 0.196721 0.117986 In
0.819672 0.016393 0.117986 In
0.770492 0.475410 0.117986 In
0.754098 0.295082 0.117986 In
0.737705 0.114754 0.117986 In
0.688525 0.573770 0.117986 In
0.672131 0.393443 0.117986 In
0.655738 0.213115 0.117986 In
0.639344 0.032787 0.117986 In
0.590164 0.491803 0.117986 In
0.573770 0.311475 0.117986 In
0.557377 0.131148 0.117986 In
0.508197 0.590164 0.117986 In
0.491803 0.409836 0.117986 In
0.475410 0.229508 0.117986 In
0.459016 0.049180 0.117986 In
0.409836 0.508197 0.117986 In
0.393443 0.327869 0.117986 In
0.377049 0.147541 0.117986 In
0.327869 0.606557 0.117986 In
0.311475 0.426230 0.117986 In
0.295082 0.245902 0.117986 In
0.278689 0.065574 0.117986 In
0.229508 0.524590 0.117986 In
0.213115 0.344262 0.117986 In
0.196721 0.163934 0.117986 In
0.147541 0.622951 0.117986 In
0.131148 0.442623 0.117986 In
0.114754 0.262295 0.117986 In
0.098361 0.081967 0.117986 In
0.049180 0.540984 0.117986 In
0.032787 0.360656 0.117986 In
0.016393 0.180328 0.117986 In
0.983607 0.819672 0.117986 In