Eu522 In441 Sb490 H214 S522
1.0
0.000000 32.071394 0.000000
32.071394 0.000000 -0.000000
-0.000000 0.000000 -109.833150
Eu In Sb H S
522 441 490 214 522
direct
0.000000 0.000000 0.517596 Eu
0.275862 0.310345 0.517596 Eu
0.103448 0.241379 0.517596 Eu
0.931034 0.172414 0.517596 Eu
0.758621 0.103448 0.517596 Eu
0.586207 0.034483 0.517596 Eu
0.689655 0.275862 0.517596 Eu
0.517241 0.206897 0.517596 Eu
0.344828 0.137931 0.517596 Eu
0.172414 0.068966 0.517596 Eu
0.879310 0.051724 0.517596 Eu
0.982759 0.293103 0.517596 Eu
0.810345 0.224138 0.517596 Eu
0.637931 0.155172 0.517596 Eu
0.465517 0.086207 0.517596 Eu
0.293103 0.017241 0.517596 Eu
0.396552 0.258621 0.517596 Eu
0.224138 0.189655 0.517596 Eu
0.051724 0.120690 0.517596 Eu
0.827586 0.931034 0.517596 Eu
0.655172 0.862069 0.517596 Eu
0.482759 0.793103 0.517596 Eu
0.310345 0.724138 0.517596 Eu
0.137931 0.655172 0.517596 Eu
0.965517 0.586207 0.517596 Eu
0.793103 0.517241 0.517596 Eu
0.620690 0.448276 0.517596 Eu
0.448276 0.379310 0.517596 Eu
0.413793 0.965517 0.517596 Eu
0.241379 0.896552 0.517596 Eu
0.068966 0.827586 0.517596 Eu
0.896552 0.758621 0.517596 Eu
0.724138 0.689655 0.517596 Eu
0.551724 0.620690 0.517596 Eu
0.379310 0.551724 0.517596 Eu
0.206897 0.482759 0.517596 Eu
0.034483 0.413793 0.517596 Eu
0.862069 0.344828 0.517596 Eu
0.706897 0.982759 0.517596 Eu
0.534483 0.913793 0.517596 Eu
0.362069 0.844828 0.517596 Eu
0.189655 0.775862 0.517596 Eu
0.017241 0.706897 0.517596 Eu
0.844828 0.637931 0.517596 Eu
0.672414 0.568966 0.517596 Eu
0.500000 0.500000 0.517596 Eu
0.327586 0.431034 0.517596 Eu
0.155172 0.362069 0.517596 Eu
0.120690 0.948276 0.517596 Eu
0.948276 0.879310 0.517596 Eu
0.775862 0.810345 0.517596 Eu
0.603448 0.741379 0.517596 Eu
0.431034 0.672414 0.517596 Eu
0.258621 0.603448 0.517596 Eu
0.086207 0.534483 0.517596 Eu
0.913793 0.465517 0.517596 Eu
0.741379 0.396552 0.517596 Eu
0.568966 0.327586 0.517596 Eu
0.051724 0.620690 0.490427 Eu
0.879310 0.551724 0.490427 Eu
0.706897 0.482759 0.490427 Eu
0.534483 0.413793 0.490427 Eu
0.362069 0.344828 0.490427 Eu
0.189655 0.275862 0.490427 Eu
0.017241 0.206897 0.490427 Eu
0.844828 0.137931 0.490427 Eu
0.672414 0.068966 0.490427 Eu
0.500000 0.000000 0.490427 Eu
0.465517 0.586207 0.490427 Eu
0.293103 0.517241 0.490427 Eu
0.120690 0.448276 0.490427 Eu
0.948276 0.379310 0.490427 Eu
0.775862 0.310345 0.490427 Eu
0.603448 0.241379 0.490427 Eu
0.431034 0.172414 0.490427 Eu
0.258621 0.103448 0.490427 Eu
0.086207 0.034483 0.490427 Eu
0.965517 0.086207 0.490427 Eu
0.793103 0.017241 0.490427 Eu
0.758621 0.603448 0.490427 Eu
0.586207 0.534483 0.490427 Eu
0.413793 0.465517 0.490427 Eu
0.241379 0.396552 0.490427 Eu
0.068966 0.327586 0.490427 Eu
0.896552 0.258621 0.490427 Eu
0.724138 0.189655 0.490427 Eu
0.551724 0.120690 0.490427 Eu
0.379310 0.051724 0.490427 Eu
0.344828 0.637931 0.490427 Eu
0.172414 0.568966 0.490427 Eu
0.000000 0.500000 0.490427 Eu
0.827586 0.431034 0.490427 Eu
0.655172 0.362069 0.490427 Eu
0.482759 0.293103 0.490427 Eu
0.310345 0.224138 0.490427 Eu
0.137931 0.155172 0.490427 Eu
0.913793 0.965517 0.490427 Eu
0.741379 0.896552 0.490427 Eu
0.568966 0.827586 0.490427 Eu
0.396552 0.758621 0.490427 Eu
0.224138 0.689655 0.490427 Eu
0.327586 0.931034 0.490427 Eu
0.155172 0.862069 0.490427 Eu
0.982759 0.793103 0.490427 Eu
0.810345 0.724138 0.490427 Eu
0.637931 0.655172 0.490427 Eu
0.620690 0.948276 0.490427 Eu
0.448276 0.879310 0.490427 Eu
0.275862 0.810345 0.490427 Eu
0.103448 0.741379 0.490427 Eu
0.931034 0.672414 0.490427 Eu
0.206897 0.982759 0.490427 Eu
0.034483 0.913793 0.490427 Eu
0.862069 0.844828 0.490427 Eu
0.689655 0.775862 0.490427 Eu
0.517241 0.706897 0.490427 Eu
0.000000 0.000000 0.463259 Eu
0.965517 0.586207 0.463259 Eu
0.793103 0.517241 0.463259 Eu
0.620690 0.448276 0.463259 Eu
0.448276 0.379310 0.463259 Eu
0.275862 0.310345 0.463259 Eu
0.103448 0.241379 0.463259 Eu
0.931034 0.172414 0.463259 Eu
0.758621 0.103448 0.463259 Eu
0.586207 0.034483 0.463259 Eu
0.551724 0.620690 0.463259 Eu
0.379310 0.551724 0.463259 Eu
0.206897 0.482759 0.463259 Eu
0.034483 0.413793 0.463259 Eu
0.862069 0.344828 0.463259 Eu
0.689655 0.275862 0.463259 Eu
0.517241 0.206897 0.463259 Eu
0.344828 0.137931 0.463259 Eu
0.172414 0.068966 0.463259 Eu
0.879310 0.051724 0.463259 Eu
0.844828 0.637931 0.463259 Eu
0.672414 0.568966 0.463259 Eu
0.500000 0.500000 0.463259 Eu
0.327586 0.431034 0.463259 Eu
0.155172 0.362069 0.463259 Eu
0.982759 0.293103 0.463259 Eu
0.810345 0.224138 0.463259 Eu
0.637931 0.155172 0.463259 Eu
0.465517 0.086207 0.463259 Eu
0.293103 0.017241 0.463259 Eu
0.258621 0.603448 0.463259 Eu
0.086207 0.534483 0.463259 Eu
0.913793 0.465517 0.463259 Eu
0.741379 0.396552 0.463259 Eu
0.568966 0.327586 0.463259 Eu
0.396552 0.258621 0.463259 Eu
0.224138 0.189655 0.463259 Eu
0.051724 0.120690 0.463259 Eu
0.827586 0.931034 0.463259 Eu
0.655172 0.862069 0.463259 Eu
0.482759 0.793103 0.463259 Eu
0.310345 0.724138 0.463259 Eu
0.137931 0.655172 0.463259 Eu
0.413793 0.965517 0.463259 Eu
0.241379 0.896552 0.463259 Eu
0.068966 0.827586 0.463259 Eu
0.896552 0.758621 0.463259 Eu
0.724138 0.689655 0.463259 Eu
0.706897 0.982759 0.463259 Eu
0.534483 0.913793 0.463259 Eu
0.362069 0.844828 0.463259 Eu
0.189655 0.775862 0.463259 Eu
0.017241 0.706897 0.463259 Eu
0.120690 0.948276 0.463259 Eu
0.948276 0.879310 0.463259 Eu
0.775862 0.810345 0.463259 Eu
0.603448 0.741379 0.463259 Eu
0.431034 0.672414 0.463259 Eu
0.051724 0.620690 0.436090 Eu
0.879310 0.551724 0.436090 Eu
0.706897 0.482759 0.436090 Eu
0.534483 0.413793 0.436090 Eu
0.362069 0.344828 0.436090 Eu
0.189655 0.275862 0.436090 Eu
0.017241 0.206897 0.436090 Eu
0.844828 0.137931 0.436090 Eu
0.672414 0.068966 0.436090 Eu
0.500000 0.000000 0.436090 Eu
0.465517 0.586207 0.436090 Eu
0.293103 0.517241 0.436090 Eu
0.120690 0.448276 0.436090 Eu
0.948276 0.379310 0.436090 Eu
0.775862 0.310345 0.436090 Eu
0.603448 0.241379 0.436090 Eu
0.431034 0.172414 0.436090 Eu
0.258621 0.103448 0.436090 Eu
0.086207 0.034483 0.436090 Eu
0.965517 0.086207 0.436090 Eu
0.793103 0.017241 0.436090 Eu
0.758621 0.603448 0.436090 Eu
0.586207 0.534483 0.436090 Eu
0.413793 0.465517 0.436090 Eu
0.241379 0.396552 0.436090 Eu
0.068966 0.327586 0.436090 Eu
0.896552 0.258621 0.436090 Eu
0.724138 0.189655 0.436090 Eu
0.551724 0.120690 0.436090 Eu
0.379310 0.051724 0.436090 Eu
0.344828 0.637931 0.436090 Eu
0.172414 0.568966 0.436090 Eu
0.000000 0.500000 0.436090 Eu
0.827586 0.431034 0.436090 Eu
0.655172 0.362069 0.436090 Eu
0.482759 0.293103 0.436090 Eu
0.310345 0.224138 0.436090 Eu
0.137931 0.155172 0.436090 Eu
0.913793 0.965517 0.436090 Eu
0.741379 0.896552 0.436090 Eu
0.568966 0.827586 0.436090 Eu
0.396552 0.758621 0.436090 Eu
0.224138 0.689655 0.436090 Eu
0.327586 0.931034 0.436090 Eu
0.155172 0.862069 0.436090 Eu
0.982759 0.793103 0.436090 Eu
0.810345 0.724138 0.436090 Eu
0.637931 0.655172 0.436090 Eu
0.620690 0.948276 0.436090 Eu
0.448276 0.879310 0.436090 Eu
0.275862 0.810345 0.436090 Eu
0.103448 0.741379 0.436090 Eu
0.931034 0.672414 0.436090 Eu
0.206897 0.982759 0.436090 Eu
0.034483 0.913793 0.436090 Eu
0.862069 0.844828 0.436090 Eu
0.689655 0.775862 0.436090 Eu
0.517241 0.706897 0.436090 Eu
0.000000 0.000000 0.408922 Eu
0.965517 0.586207 0.408922 Eu
0.793103 0.517241 0.408922 Eu
0.620690 0.448276 0.408922 Eu
0.448276 0.379310 0.408922 Eu
0.275862 0.310345 0.408922 Eu
0.103448 0.241379 0.408922 Eu
0.931034 0.172414 0.408922 Eu
0.758621 0.103448 0.408922 Eu
0.586207 0.034483 0.408922 Eu
0.551724 0.620690 0.408922 Eu
0.379310 0.551724 0.408922 Eu
0.206897 0.482759 0.408922 Eu
0.034483 0.413793 0.408922 Eu
0.862069 0.344828 0.408922 Eu
0.689655 0.275862 0.408922 Eu
0.517241 0.206897 0.408922 Eu
0.344828 0.137931 0.408922 Eu
0.172414 0.068966 0.408922 Eu
0.879310 0.051724 0.408922 Eu
0.844828 0.637931 0.408922 Eu
0.672414 0.568966 0.408922 Eu
0.500000 0.500000 0.408922 Eu
0.327586 0.431034 0.408922 Eu
0.155172 0.362069 0.408922 Eu
0.982759 0.293103 0.408922 Eu
0.810345 0.224138 0.408922 Eu
0.637931 0.155172 0.408922 Eu
0.465517 0.086207 0.408922 Eu
0.293103 0.017241 0.408922 Eu
0.258621 0.603448 0.408922 Eu
0.086207 0.534483 0.408922 Eu
0.913793 0.465517 0.408922 Eu
0.741379 0.396552 0.408922 Eu
0.568966 0.327586 0.408922 Eu
0.396552 0.258621 0.408922 Eu
0.224138 0.189655 0.408922 Eu
0.051724 0.120690 0.408922 Eu
0.827586 0.931034 0.408922 Eu
0.655172 0.862069 0.408922 Eu
0.482759 0.793103 0.408922 Eu
0.310345 0.724138 0.408922 Eu
0.137931 0.655172 0.408922 Eu
0.413793 0.965517 0.408922 Eu
0.241379 0.896552 0.408922 Eu
0.068966 0.827586 0.408922 Eu
0.896552 0.758621 0.408922 Eu
0.724138 0.689655 0.408922 Eu
0.706897 0.982759 0.408922 Eu
0.534483 0.913793 0.408922 Eu
0.362069 0.844828 0.408922 Eu
0.189655 0.775862 0.408922 Eu
0.017241 0.706897 0.408922 Eu
0.120690 0.948276 0.408922 Eu
0.948276 0.879310 0.408922 Eu
0.775862 0.810345 0.408922 Eu
0.603448 0.741379 0.408922 Eu
0.431034 0.672414 0.408922 Eu
0.051724 0.620690 0.381753 Eu
0.879310 0.551724 0.381753 Eu
0.706897 0.482759 0.381753 Eu
0.534483 0.413793 0.381753 Eu
0.362069 0.344828 0.381753 Eu
0.189655 0.275862 0.381753 Eu
0.017241 0.206897 0.381753 Eu
0.844828 0.137931 0.381753 Eu
0.672414 0.068966 0.381753 Eu
0.500000 0.000000 0.381753 Eu
0.465517 0.586207 0.381753 Eu
0.293103 0.517241 0.381753 Eu
0.120690 0.448276 0.381753 Eu
0.948276 0.379310 0.381753 Eu
0.775862 0.310345 0.381753 Eu
0.603448 0.241379 0.381753 Eu
0.431034 0.172414 0.381753 Eu
0.258621 0.103448 0.381753 Eu
0.086207 0.034483 0.381753 Eu
0.965517 0.086207 0.381753 Eu
0.793103 0.017241 0.381753 Eu
0.758621 0.603448 0.381753 Eu
0.586207 0.534483 0.381753 Eu
0.413793 0.465517 0.381753 Eu
0.241379 0.396552 0.381753 Eu
0.068966 0.327586 0.381753 Eu
0.896552 0.258621 0.381753 Eu
0.724138 0.189655 0.381753 Eu
0.551724 0.120690 0.381753 Eu
0.379310 0.051724 0.381753 Eu
0.344828 0.637931 0.381753 Eu
0.172414 0.568966 0.381753 Eu
0.000000 0.500000 0.381753 Eu
0.827586 0.431034 0.381753 Eu
0.655172 0.362069 0.381753 Eu
0.482759 0.293103 0.381753 Eu
0.310345 0.224138 0.381753 Eu
0.137931 0.155172 0.381753 Eu
0.913793 0.965517 0.381753 Eu
0.741379 0.896552 0.381753 Eu
0.568966 0.827586 0.381753 Eu
0.396552 0.758621 0.381753 Eu
0.224138 0.689655 0.381753 Eu
0.327586 0.931034 0.381753 Eu
0.155172 0.862069 0.381753 Eu
0.982759 0.793103 0.381753 Eu
0.810345 0.724138 0.381753 Eu
0.637931 0.655172 0.381753 Eu
0.620690 0.948276 0.381753 Eu
0.448276 0.879310 0.381753 Eu
0.275862 0.810345 0.381753 Eu
0.103448 0.741379 0.381753 Eu
0.931034 0.672414 0.381753 Eu
0.206897 0.982759 0.381753 Eu
0.034483 0.913793 0.381753 Eu
0.862069 0.844828 0.381753 Eu
0.689655 0.775862 0.381753 Eu
0.517241 0.706897 0.381753 Eu
0.000000 0.000000 0.354585 Eu
0.965517 0.586207 0.354585 Eu
0.793103 0.517241 0.354585 Eu
0.620690 0.448276 0.354585 Eu
0.448276 0.379310 0.354585 Eu
0.275862 0.310345 0.354585 Eu
0.103448 0.241379 0.354585 Eu
0.931034 0.172414 0.354585 Eu
0.758621 0.103448 0.354585 Eu
0.586207 0.034483 0.354585 Eu
0.551724 0.620690 0.354585 Eu
0.379310 0.551724 0.354585 Eu
0.206897 0.482759 0.354585 Eu
0.034483 0.413793 0.354585 Eu
0.862069 0.344828 0.354585 Eu
0.689655 0.275862 0.354585 Eu
0.517241 0.206897 0.354585 Eu
0.344828 0.137931 0.354585 Eu
0.172414 0.068966 0.354585 Eu
0.879310 0.051724 0.354585 Eu
0.844828 0.637931 0.354585 Eu
0.672414 0.568966 0.354585 Eu
0.500000 0.500000 0.354585 Eu
0.327586 0.431034 0.354585 Eu
0.155172 0.362069 0.354585 Eu
0.982759 0.293103 0.354585 Eu
0.810345 0.224138 0.354585 Eu
0.637931 0.155172 0.354585 Eu
0.465517 0.086207 0.354585 Eu
0.293103 0.017241 0.354585 Eu
0.258621 0.603448 0.354585 Eu
0.086207 0.534483 0.354585 Eu
0.913793 0.465517 0.354585 Eu
0.741379 0.396552 0.354585 Eu
0.568966 0.327586 0.354585 Eu
0.396552 0.258621 0.354585 Eu
0.224138 0.189655 0.354585 Eu
0.051724 0.120690 0.354585 Eu
0.827586 0.931034 0.354585 Eu
0.655172 0.862069 0.354585 Eu
0.482759 0.793103 0.354585 Eu
0.310345 0.724138 0.354585 Eu
0.137931 0.655172 0.354585 Eu
0.413793 0.965517 0.354585 Eu
0.241379 0.896552 0.354585 Eu
0.068966 0.827586 0.354585 Eu
0.896552 0.758621 0.354585 Eu
0.724138 0.689655 0.354585 Eu
0.706897 0.982759 0.354585 Eu
0.534483 0.913793 0.354585 Eu
0.362069 0.844828 0.354585 Eu
0.189655 0.775862 0.354585 Eu
0.017241 0.706897 0.354585 Eu
0.120690 0.948276 0.354585 Eu
0.948276 0.879310 0.354585 Eu
0.775862 0.810345 0.354585 Eu
0.603448 0.741379 0.354585 Eu
0.431034 0.672414 0.354585 Eu
0.051724 0.620690 0.327416 Eu
0.879310 0.551724 0.327416 Eu
0.706897 0.482759 0.327416 Eu
0.534483 0.413793 0.327416 Eu
0.362069 0.344828 0.327416 Eu
0.189655 0.275862 0.327416 Eu
0.017241 0.206897 0.327416 Eu
0.844828 0.137931 0.327416 Eu
0.672414 0.068966 0.327416 Eu
0.500000 0.000000 0.327416 Eu
0.465517 0.586207 0.327416 Eu
0.293103 0.517241 0.327416 Eu
0.120690 0.448276 0.327416 Eu
0.948276 0.379310 0.327416 Eu
0.775862 0.310345 0.327416 Eu
0.603448 0.241379 0.327416 Eu
0.431034 0.172414 0.327416 Eu
0.258621 0.103448 0.327416 Eu
0.086207 0.034483 0.327416 Eu
0.965517 0.086207 0.327416 Eu
0.793103 0.017241 0.327416 Eu
0.758621 0.603448 0.327416 Eu
0.586207 0.534483 0.327416 Eu
0.413793 0.465517 0.327416 Eu
0.241379 0.396552 0.327416 Eu
0.068966 0.327586 0.327416 Eu
0.896552 0.258621 0.327416 Eu
0.724138 0.189655 0.327416 Eu
0.551724 0.120690 0.327416 Eu
0.379310 0.051724 0.327416 Eu
0.344828 0.637931 0.327416 Eu
0.172414 0.568966 0.327416 Eu
0.000000 0.500000 0.327416 Eu
0.827586 0.431034 0.327416 Eu
0.655172 0.362069 0.327416 Eu
0.482759 0.293103 0.327416 Eu
0.310345 0.224138 0.327416 Eu
0.137931 0.155172 0.327416 Eu
0.913793 0.965517 0.327416 Eu
0.741379 0.896552 0.327416 Eu
0.568966 0.827586 0.327416 Eu
0.396552 0.758621 0.327416 Eu
0.224138 0.689655 0.327416 Eu
0.327586 0.931034 0.327416 Eu
0.155172 0.862069 0.327416 Eu
0.982759 0.793103 0.327416 Eu
0.810345 0.724138 0.327416 Eu
0.637931 0.655172 0.327416 Eu
0.620690 0.948276 0.327416 Eu
0.448276 0.879310 0.327416 Eu
0.275862 0.810345 0.327416 Eu
0.103448 0.741379 0.327416 Eu
0.931034 0.672414 0.327416 Eu
0.206897 0.982759 0.327416 Eu
0.034483 0.913793 0.327416 Eu
0.862069 0.844828 0.327416 Eu
0.689655 0.775862 0.327416 Eu
0.517241 0.706897 0.327416 Eu
0.000000 0.000000 0.300248 Eu
0.965517 0.586207 0.300248 Eu
0.793103 0.517241 0.300248 Eu
0.620690 0.448276 0.300248 Eu
0.448276 0.379310 0.300248 Eu
0.275862 0.310345 0.300248 Eu
0.103448 0.241379 0.300248 Eu
0.931034 0.172414 0.300248 Eu
0.758621 0.103448 0.300248 Eu
0.586207 0.034483 0.300248 Eu
0.551724 0.620690 0.300248 Eu
0.379310 0.551724 0.300248 Eu
0.206897 0.482759 0.300248 Eu
0.034483 0.413793 0.300248 Eu
0.862069 0.344828 0.300248 Eu
0.689655 0.275862 0.300248 Eu
0.517241 0.206897 0.300248 Eu
0.344828 0.137931 0.300248 Eu
0.172414 0.068966 0.300248 Eu
0.879310 0.051724 0.300248 Eu
0.844828 0.637931 0.300248 Eu
0.672414 0.568966 0.300248 Eu
0.500000 0.500000 0.300248 Eu
0.327586 0.431034 0.300248 Eu
0.155172 0.362069 0.300248 Eu
0.982759 0.293103 0.300248 Eu
0.810345 0.224138 0.300248 Eu
0.637931 0.155172 0.300248 Eu
0.465517 0.086207 0.300248 Eu
0.293103 0.017241 0.300248 Eu
0.258621 0.603448 0.300248 Eu
0.086207 0.534483 0.300248 Eu
0.913793 0.465517 0.300248 Eu
0.741379 0.396552 0.300248 Eu
0.568966 0.327586 0.300248 Eu
0.396552 0.258621 0.300248 Eu
0.224138 0.189655 0.300248 Eu
0.051724 0.120690 0.300248 Eu
0.827586 0.931034 0.300248 Eu
0.655172 0.862069 0.300248 Eu
0.482759 0.793103 0.300248 Eu
0.310345 0.724138 0.300248 Eu
0.137931 0.655172 0.300248 Eu
0.413793 0.965517 0.300248 Eu
0.241379 0.896552 0.300248 Eu
0.068966 0.827586 0.300248 Eu
0.896552 0.758621 0.300248 Eu
0.724138 0.689655 0.300248 Eu
0.706897 0.982759 0.300248 Eu
0.534483 0.913793 0.300248 Eu
0.362069 0.844828 0.300248 Eu
0.189655 0.775862 0.300248 Eu
0.017241 0.706897 0.300248 Eu
0.120690 0.948276 0.300248 Eu
0.948276 0.879310 0.300248 Eu
0.775862 0.810345 0.300248 Eu
0.603448 0.741379 0.300248 Eu
0.431034 0.672414 0.300248 Eu
0.928571 0.071429 0.265469 In
0.785714 0.214286 0.265469 In
0.642857 0.357143 0.265469 In
0.500000 0.500000 0.265469 In
0.642857 0.071429 0.265469 In
0.500000 0.214286 0.265469 In
0.357143 0.357143 0.265469 In
0.214286 0.500000 0.265469 In
0.357143 0.071429 0.265469 In
0.214286 0.214286 0.265469 In
0.071429 0.357143 0.265469 In
0.928571 0.500000 0.265469 In
0.071429 0.071429 0.265469 In
0.928571 0.214286 0.265469 In
0.785714 0.357143 0.265469 In
0.642857 0.500000 0.265469 In
0.357143 0.500000 0.265469 In
0.785714 0.071429 0.265469 In
0.642857 0.214286 0.265469 In
0.500000 0.357143 0.265469 In
0.214286 0.357143 0.265469 In
0.071429 0.500000 0.265469 In
0.500000 0.071429 0.265469 In
0.357143 0.214286 0.265469 In
0.071429 0.214286 0.265469 In
0.928571 0.357143 0.265469 In
0.785714 0.500000 0.265469 In
0.214286 0.071429 0.265469 In
0.357143 0.642857 0.265469 In
0.214286 0.785714 0.265469 In
0.071429 0.928571 0.265469 In
0.785714 0.928571 0.265469 In
0.071429 0.642857 0.265469 In
0.928571 0.785714 0.265469 In
0.642857 0.785714 0.265469 In
0.500000 0.928571 0.265469 In
0.785714 0.642857 0.265469 In
0.500000 0.642857 0.265469 In
0.357143 0.785714 0.265469 In
0.214286 0.928571 0.265469 In
0.214286 0.642857 0.265469 In
0.071429 0.785714 0.265469 In
0.928571 0.928571 0.265469 In
0.928571 0.642857 0.265469 In
0.785714 0.785714 0.265469 In
0.642857 0.928571 0.265469 In
0.642857 0.642857 0.265469 In
0.500000 0.785714 0.265469 In
0.357143 0.928571 0.265469 In
0.000000 0.000000 0.235972 In
0.857143 0.142857 0.235972 In
0.714286 0.285714 0.235972 In
0.571429 0.428571 0.235972 In
0.428571 0.571429 0.235972 In
0.714286 0.000000 0.235972 In
0.571429 0.142857 0.235972 In
0.428571 0.285714 0.235972 In
0.285714 0.428571 0.235972 In
0.142857 0.571429 0.235972 In
0.428571 0.000000 0.235972 In
0.285714 0.142857 0.235972 In
0.142857 0.285714 0.235972 In
0.000000 0.428571 0.235972 In
0.857143 0.571429 0.235972 In
0.571429 0.571429 0.235972 In
0.142857 0.000000 0.235972 In
0.000000 0.142857 0.235972 In
0.857143 0.285714 0.235972 In
0.714286 0.428571 0.235972 In
0.428571 0.428571 0.235972 In
0.285714 0.571429 0.235972 In
0.857143 0.000000 0.235972 In
0.714286 0.142857 0.235972 In
0.571429 0.285714 0.235972 In
0.285714 0.285714 0.235972 In
0.142857 0.428571 0.235972 In
0.000000 0.571429 0.235972 In
0.571429 0.000000 0.235972 In
0.428571 0.142857 0.235972 In
0.142857 0.142857 0.235972 In
0.000000 0.285714 0.235972 In
0.857143 0.428571 0.235972 In
0.714286 0.571429 0.235972 In
0.285714 0.000000 0.235972 In
0.285714 0.714286 0.235972 In
0.142857 0.857143 0.235972 In
0.857143 0.857143 0.235972 In
0.000000 0.714286 0.235972 In
0.714286 0.714286 0.235972 In
0.571429 0.857143 0.235972 In
0.428571 0.714286 0.235972 In
0.285714 0.857143 0.235972 In
0.142857 0.714286 0.235972 In
0.000000 0.857143 0.235972 In
0.857143 0.714286 0.235972 In
0.714286 0.857143 0.235972 In
0.571429 0.714286 0.235972 In
0.428571 0.857143 0.235972 In
0.928571 0.071429 0.206476 In
0.785714 0.214286 0.206476 In
0.642857 0.357143 0.206476 In
0.500000 0.500000 0.206476 In
0.642857 0.071429 0.206476 In
0.500000 0.214286 0.206476 In
0.357143 0.357143 0.206476 In
0.214286 0.500000 0.206476 In
0.357143 0.071429 0.206476 In
0.214286 0.214286 0.206476 In
0.071429 0.357143 0.206476 In
0.928571 0.500000 0.206476 In
0.071429 0.071429 0.206476 In
0.928571 0.214286 0.206476 In
0.785714 0.357143 0.206476 In
0.642857 0.500000 0.206476 In
0.357143 0.500000 0.206476 In
0.785714 0.071429 0.206476 In
0.642857 0.214286 0.206476 In
0.500000 0.357143 0.206476 In
0.214286 0.357143 0.206476 In
0.071429 0.500000 0.206476 In
0.500000 0.071429 0.206476 In
0.357143 0.214286 0.206476 In
0.071429 0.214286 0.206476 In
0.928571 0.357143 0.206476 In
0.785714 0.500000 0.206476 In
0.214286 0.071429 0.206476 In
0.357143 0.642857 0.206476 In
0.214286 0.785714 0.206476 In
0.071429 0.928571 0.206476 In
0.785714 0.928571 0.206476 In
0.071429 0.642857 0.206476 In
0.928571 0.785714 0.206476 In
0.642857 0.785714 0.206476 In
0.500000 0.928571 0.206476 In
0.785714 0.642857 0.206476 In
0.500000 0.642857 0.206476 In
0.357143 0.785714 0.206476 In
0.214286 0.928571 0.206476 In
0.214286 0.642857 0.206476 In
0.071429 0.785714 0.206476 In
0.928571 0.928571 0.206476 In
0.928571 0.642857 0.206476 In
0.785714 0.785714 0.206476 In
0.642857 0.928571 0.206476 In
0.642857 0.642857 0.206476 In
0.500000 0.785714 0.206476 In
0.357143 0.928571 0.206476 In
0.000000 0.000000 0.176979 In
0.857143 0.142857 0.176979 In
0.714286 0.285714 0.176979 In
0.571429 0.428571 0.176979 In
0.428571 0.571429 0.176979 In
0.714286 0.000000 0.176979 In
0.571429 0.142857 0.176979 In
0.428571 0.285714 0.176979 In
0.285714 0.428571 0.176979 In
0.142857 0.571429 0.176979 In
0.428571 0.000000 0.176979 In
0.285714 0.142857 0.176979 In
0.142857 0.285714 0.176979 In
0.000000 0.428571 0.176979 In
0.857143 0.571429 0.176979 In
0.571429 0.571429 0.176979 In
0.142857 0.000000 0.176979 In
0.000000 0.142857 0.176979 In
0.857143 0.285714 0.176979 In
0.714286 0.428571 0.176979 In
0.428571 0.428571 0.176979 In
0.285714 0.571429 0.176979 In
0.857143 0.000000 0.176979 In
0.714286 0.142857 0.176979 In
0.571429 0.285714 0.176979 In
0.285714 0.285714 0.176979 In
0.142857 0.428571 0.176979 In
0.000000 0.571429 0.176979 In
0.571429 0.000000 0.176979 In
0.428571 0.142857 0.176979 In
0.142857 0.142857 0.176979 In
0.000000 0.285714 0.176979 In
0.857143 0.428571 0.176979 In
0.714286 0.571429 0.176979 In
0.285714 0.000000 0.176979 In
0.285714 0.714286 0.176979 In
0.142857 0.857143 0.176979 In
0.857143 0.857143 0.176979 In
0.000000 0.714286 0.176979 In
0.714286 0.714286 0.176979 In
0.571429 0.857143 0.176979 In
0.428571 0.714286 0.176979 In
0.285714 0.857143 0.176979 In
0.142857 0.714286 0.176979 In
0.000000 0.857143 0.176979 In
0.857143 0.714286 0.176979 In
0.714286 0.857143 0.176979 In
0.571429 0.714286 0.176979 In
0.428571 0.857143 0.176979 In
0.928571 0.071429 0.147483 In
0.785714 0.214286 0.147483 In
0.642857 0.357143 0.147483 In
0.500000 0.500000 0.147483 In
0.642857 0.071429 0.147483 In
0.500000 0.214286 0.147483 In
0.357143 0.357143 0.147483 In
0.214286 0.500000 0.147483 In
0.357143 0.071429 0.147483 In
0.214286 0.214286 0.147483 In
0.071429 0.357143 0.147483 In
0.928571 0.500000 0.147483 In
0.071429 0.071429 0.147483 In
0.928571 0.214286 0.147483 In
0.785714 0.357143 0.147483 In
0.642857 0.500000 0.147483 In
0.357143 0.500000 0.147483 In
0.785714 0.071429 0.147483 In
0.642857 0.214286 0.147483 In
0.500000 0.357143 0.147483 In
0.214286 0.357143 0.147483 In
0.071429 0.500000 0.147483 In
0.500000 0.071429 0.147483 In
0.357143 0.214286 0.147483 In
0.071429 0.214286 0.147483 In
0.928571 0.357143 0.147483 In
0.785714 0.500000 0.147483 In
0.214286 0.071429 0.147483 In
0.357143 0.642857 0.147483 In
0.214286 0.785714 0.147483 In
0.071429 0.928571 0.147483 In
0.785714 0.928571 0.147483 In
0.071429 0.642857 0.147483 In
0.928571 0.785714 0.147483 In
0.642857 0.785714 0.147483 In
0.500000 0.928571 0.147483 In
0.785714 0.642857 0.147483 In
0.500000 0.642857 0.147483 In
0.357143 0.785714 0.147483 In
0.214286 0.928571 0.147483 In
0.214286 0.642857 0.147483 In
0.071429 0.785714 0.147483 In
0.928571 0.928571 0.147483 In
0.928571 0.642857 0.147483 In
0.785714 0.785714 0.147483 In
0.642857 0.928571 0.147483 In
0.642857 0.642857 0.147483 In
0.500000 0.785714 0.147483 In
0.357143 0.928571 0.147483 In
0.000000 0.000000 0.117986 In
0.857143 0.142857 0.117986 In
0.714286 0.285714 0.117986 In
0.571429 0.428571 0.117986 In
0.428571 0.571429 0.117986 In
0.714286 0.000000 0.117986 In
0.571429 0.142857 0.117986 In
0.428571 0.285714 0.117986 In
0.285714 0.428571 0.117986 In
0.142857 0.571429 0.117986 In
0.428571 0.000000 0.117986 In
0.285714 0.142857 0.117986 In
0.142857 0.285714 0.117986 In
0.000000 0.428571 0.117986 In
0.857143 0.571429 0.117986 In
0.571429 0.571429 0.117986 In
0.142857 0.000000 0.117986 In
0.000000 0.142857 0.117986 In
0.857143 0.285714 0.117986 In
0.714286 0.428571 0.117986 In
0.428571 0.428571 0.117986 In
0.285714 0.571429 0.117986 In
0.857143 0.000000 0.117986 In
0.714286 0.142857 0.117986 In
0.571429 0.285714 0.117986 In
0.285714 0.285714 0.117986 In
0.142857 0.428571 0.117986 In
0.000000 0.571429 0.117986 In
0.571429 0.000000 0.117986 In
0.428571 0.142857 0.117986 In
0.142857 0.142857 0.117986 In
0.000000 0.285714 0.117986 In
0.857143 0.428571 0.117986 In
0.714286 0.571429 0.117986 In
0.285714 0.000000 0.117986 In
0.285714 0.714286 0.117986 In
0.142857 0.857143 0.117986 In
0.857143 0.857143 0.117986 In
0.000000 0.714286 0.117986 In
0.714286 0.714286 0.117986 In
0.571429 0.857143 0.117986 In
0.428571 0.714286 0.117986 In
0.285714 0.857143 0.117986 In
0.142857 0.714286 0.117986 In
0.000000 0.857143 0.117986 In
0.857143 0.714286 0.117986 In
0.714286 0.857143 0.117986 In
0.571429 0.714286 0.117986 In
0.428571 0.857143 0.117986 In
0.928571 0.071429 0.088490 In
0.785714 0.214286 0.088490 In
0.642857 0.357143 0.088490 In
0.500000 0.500000 0.088490 In
0.642857 0.071429 0.088490 In
0.500000 0.214286 0.088490 In
0.357143 0.357143 0.088490 In
0.214286 0.500000 0.088490 In
0.357143 0.071429 0.088490 In
0.214286 0.214286 0.088490 In
0.071429 0.357143 0.088490 In
0.928571 0.500000 0.088490 In
0.071429 0.071429 0.088490 In
0.928571 0.214286 0.088490 In
0.785714 0.357143 0.088490 In
0.642857 0.500000 0.088490 In
0.357143 0.500000 0.088490 In
0.785714 0.071429 0.088490 In
0.642857 0.214286 0.088490 In
0.500000 0.357143 0.088490 In
0.214286 0.357143 0.088490 In
0.071429 0.500000 0.088490 In
0.500000 0.071429 0.088490 In
0.357143 0.214286 0.088490 In
0.071429 0.214286 0.088490 In
0.928571 0.357143 0.088490 In
0.785714 0.500000 0.088490 In
0.214286 0.071429 0.088490 In
0.357143 0.642857 0.088490 In
0.214286 0.785714 0.088490 In
0.071429 0.928571 0.088490 In
0.785714 0.928571 0.088490 In
0.071429 0.642857 0.088490 In
0.928571 0.785714 0.088490 In
0.642857 0.785714 0.088490 In
0.500000 0.928571 0.088490 In
0.785714 0.642857 0.088490 In
0.500000 0.642857 0.088490 In
0.357143 0.785714 0.088490 In
0.214286 0.928571 0.088490 In
0.214286 0.642857 0.088490 In
0.071429 0.785714 0.088490 In
0.928571 0.928571 0.088490 In
0.928571 0.642857 0.088490 In
0.785714 0.785714 0.088490 In
0.642857 0.928571 0.088490 In
0.642857 0.642857 0.088490 In
0.500000 0.785714 0.088490 In
0.357143 0.928571 0.088490 In
0.000000 0.000000 0.058993 In
0.857143 0.142857 0.058993 In
0.714286 0.285714 0.058993 In
0.571429 0.428571 0.058993 In
0.428571 0.571429 0.058993 In
0.714286 0.000000 0.058993 In
0.571429 0.142857 0.058993 In
0.428571 0.285714 0.058993 In
0.285714 0.428571 0.058993 In
0.142857 0.571429 0.058993 In
0.428571 0.000000 0.058993 In
0.285714 0.142857 0.058993 In
0.142857 0.285714 0.058993 In
0.000000 0.428571 0.058993 In
0.857143 0.571429 0.058993 In
0.571429 0.571429 0.058993 In
0.142857 0.000000 0.058993 In
0.000000 0.142857 0.058993 In
0.857143 0.285714 0.058993 In
0.714286 0.428571 0.058993 In
0.428571 0.428571 0.058993 In
0.285714 0.571429 0.058993 In
0.857143 0.000000 0.058993 In
0.714286 0.142857 0.058993 In
0.571429 0.285714 0.058993 In
0.285714 0.285714 0.058993 In
0.142857 0.428571 0.058993 In
0.000000 0.571429 0.058993 In
0.571429 0.000000 0.058993 In
0.428571 0.142857 0.058993 In
0.142857 0.142857 0.058993 In
0.000000 0.285714 0.058993 In
0.857143 0.428571 0.058993 In
0.714286 0.571429 0.058993 In
0.285714 0.000000 0.058993 In
0.285714 0.714286 0.058993 In
0.142857 0.857143 0.058993 In
0.857143 0.857143 0.058993 In
0.000000 0.714286 0.058993 In
0.714286 0.714286 0.058993 In
0.571429 0.857143 0.058993 In
0.428571 0.714286 0.058993 In
0.285714 0.857143 0.058993 In
0.142857 0.714286 0.058993 In
0.000000 0.857143 0.058993 In
0.857143 0.714286 0.058993 In
0.714286 0.857143 0.058993 In
0.571429 0.714286 0.058993 In
0.428571 0.857143 0.058993 In
0.928571 0.071429 0.029497 In
0.785714 0.214286 0.029497 In
0.642857 0.357143 0.029497 In
0.500000 0.500000 0.029497 In
0.642857 0.071429 0.029497 In
0.500000 0.214286 0.029497 In
0.357143 0.357143 0.029497 In
0.214286 0.500000 0.029497 In
0.357143 0.071429 0.029497 In
0.214286 0.214286 0.029497 In
0.071429 0.357143 0.029497 In
0.928571 0.500000 0.029497 In
0.071429 0.071429 0.029497 In
0.928571 0.214286 0.029497 In
0.785714 0.357143 0.029497 In
0.642857 0.500000 0.029497 In
0.357143 0.500000 0.029497 In
0.785714 0.071429 0.029497 In
0.642857 0.214286 0.029497 In
0.500000 0.357143 0.029497 In
0.214286 0.357143 0.029497 In
0.071429 0.500000 0.029497 In
0.500000 0.071429 0.029497 In
0.357143 0.214286 0.029497 In
0.071429 0.214286 0.029497 In
0.928571 0.357143 0.029497 In
0.785714 0.500000 0.029497 In
0.214286 0.071429 0.029497 In
0.357143 0.642857 0.029497 In
0.214286 0.785714 0.029497 In
0.071429 0.928571 0.029497 In
0.785714 0.928571 0.029497 In
0.071429 0.642857 0.029497 In
0.928571 0.785714 0.029497 In
0.642857 0.785714 0.029497 In
0.500000 0.928571 0.029497 In
0.785714 0.642857 0.029497 In
0.500000 0.642857 0.029497 In
0.357143 0.785714 0.029497 In
0.214286 0.928571 0.029497 In
0.214286 0.642857 0.029497 In
0.071429 0.785714 0.029497 In
0.928571 0.928571 0.029497 In
0.928571 0.642857 0.029497 In
0.785714 0.785714 0.029497 In
0.642857 0.928571 0.029497 In
0.642857 0.642857 0.029497 In
0.500000 0.785714 0.029497 In
0.357143 0.928571 0.029497 In
0.857143 0.071429 0.280217 Sb
0.714286 0.214286 0.280217 Sb
0.571429 0.357143 0.280217 Sb
0.428571 0.500000 0.280217 Sb
0.571429 0.071429 0.280217 Sb
0.428571 0.214286 0.280217 Sb
0.285714 0.357143 0.280217 Sb
0.142857 0.500000 0.280217 Sb
0.285714 0.071429 0.280217 Sb
0.142857 0.214286 0.280217 Sb
0.000000 0.357143 0.280217 Sb
0.857143 0.500000 0.280217 Sb
0.000000 0.071429 0.280217 Sb
0.857143 0.214286 0.280217 Sb
0.714286 0.357143 0.280217 Sb
0.571429 0.500000 0.280217 Sb
0.285714 0.500000 0.280217 Sb
0.714286 0.071429 0.280217 Sb
0.571429 0.214286 0.280217 Sb
0.428571 0.357143 0.280217 Sb
0.142857 0.357143 0.280217 Sb
0.000000 0.500000 0.280217 Sb
0.428571 0.071429 0.280217 Sb
0.285714 0.214286 0.280217 Sb
0.000000 0.214286 0.280217 Sb
0.857143 0.357143 0.280217 Sb
0.714286 0.500000 0.280217 Sb
0.142857 0.071429 0.280217 Sb
0.285714 0.642857 0.280217 Sb
0.142857 0.785714 0.280217 Sb
0.000000 0.928571 0.280217 Sb