In1 Sb1
1.0
0.000000 3.239700 3.239700
3.239700 0.000000 3.239700
3.239700 3.239700 0.000000
In Sb
1 1
direct
0.000000 0.000000 0.000000 In
0.250000 0.250000 0.250000 Sb
