Eu4 S4
1.0
5.968000 0.000000 0.000000
0.000000 5.968000 0.000000
0.000000 0.000000 5.968000
Eu S
4 4
direct
0.000000 0.000000 0.000000 Eu
0.000000 0.500000 0.500000 Eu
0.500000 0.000000 0.500000 Eu
0.500000 0.500000 0.000000 Eu
0.500000 0.000000 0.000000 S
0.500000 0.500000 0.500000 S
0.000000 0.000000 0.500000 S
0.000000 0.500000 0.000000 S
