In4 As4
1.0
6.058400 0.000000 0.000000
0.000000 6.058400 0.000000
0.000000 0.000000 6.058400
In As
4 4
direct
0.000000 0.000000 0.000000 In
0.000000 0.500000 0.500000 In
0.500000 0.000000 0.500000 In
0.500000 0.500000 0.000000 In
0.250000 0.250000 0.250000 As
0.250000 0.750000 0.750000 As
0.750000 0.250000 0.750000 As
0.750000 0.750000 0.250000 As
