Al120 In54 As54
1.0
0.000000 12.851807 0.000000
12.851807 0.000000 -0.000000
-0.000000 0.000000 -68.957925
Al In As
120 54 54
direct
0.000000 -0.000000 0.302794 Al
0.700000 0.900000 0.302794 Al
0.400000 0.800000 0.302794 Al
0.100000 0.700000 0.302794 Al
0.800000 0.600000 0.302794 Al
0.500000 0.500000 0.302794 Al
0.200000 0.400000 0.302794 Al
0.900000 0.300000 0.302794 Al
0.600000 0.200000 0.302794 Al
0.300000 0.100000 0.302794 Al
0.900000 0.800000 0.302794 Al
0.600000 0.700000 0.302794 Al
0.300000 0.600000 0.302794 Al
0.000000 0.500000 0.302794 Al
0.700000 0.400000 0.302794 Al
0.400000 0.300000 0.302794 Al
0.100000 0.200000 0.302794 Al
0.800000 0.100000 0.302794 Al
0.500000 -0.000000 0.302794 Al
0.200000 0.900000 0.302794 Al
0.850000 0.950000 0.273509 Al
0.550000 0.850000 0.273509 Al
0.250000 0.750000 0.273509 Al
0.950000 0.650000 0.273509 Al
0.650000 0.550000 0.273509 Al
0.350000 0.450000 0.273509 Al
0.050000 0.350000 0.273509 Al
0.750000 0.250000 0.273509 Al
0.450000 0.150000 0.273509 Al
0.150000 0.050000 0.273509 Al
0.050000 0.850000 0.273509 Al
0.750000 0.750000 0.273509 Al
0.450000 0.650000 0.273509 Al
0.150000 0.550000 0.273509 Al
0.850000 0.450000 0.273509 Al
0.550000 0.350000 0.273509 Al
0.250000 0.250000 0.273509 Al
0.950000 0.150000 0.273509 Al
0.650000 0.050000 0.273509 Al
0.350000 0.950000 0.273509 Al
0.000000 -0.000000 0.361365 Al
0.700000 0.900000 0.361365 Al
0.400000 0.800000 0.361365 Al
0.100000 0.700000 0.361365 Al
0.800000 0.600000 0.361365 Al
0.500000 0.500000 0.361365 Al
0.200000 0.400000 0.361365 Al
0.900000 0.300000 0.361365 Al
0.600000 0.200000 0.361365 Al
0.300000 0.100000 0.361365 Al
0.900000 0.800000 0.361365 Al
0.600000 0.700000 0.361365 Al
0.300000 0.600000 0.361365 Al
0.000000 0.500000 0.361365 Al
0.700000 0.400000 0.361365 Al
0.400000 0.300000 0.361365 Al
0.100000 0.200000 0.361365 Al
0.800000 0.100000 0.361365 Al
0.500000 -0.000000 0.361365 Al
0.200000 0.900000 0.361365 Al
0.850000 0.950000 0.332080 Al
0.550000 0.850000 0.332080 Al
0.250000 0.750000 0.332080 Al
0.950000 0.650000 0.332080 Al
0.650000 0.550000 0.332080 Al
0.350000 0.450000 0.332080 Al
0.050000 0.350000 0.332080 Al
0.750000 0.250000 0.332080 Al
0.450000 0.150000 0.332080 Al
0.150000 0.050000 0.332080 Al
0.050000 0.850000 0.332080 Al
0.750000 0.750000 0.332080 Al
0.450000 0.650000 0.332080 Al
0.150000 0.550000 0.332080 Al
0.850000 0.450000 0.332080 Al
0.550000 0.350000 0.332080 Al
0.250000 0.250000 0.332080 Al
0.950000 0.150000 0.332080 Al
0.650000 0.050000 0.332080 Al
0.350000 0.950000 0.332080 Al
0.000000 -0.000000 0.419936 Al
0.700000 0.900000 0.419936 Al
0.400000 0.800000 0.419936 Al
0.100000 0.700000 0.419936 Al
0.800000 0.600000 0.419936 Al
0.500000 0.500000 0.419936 Al
0.200000 0.400000 0.419936 Al
0.900000 0.300000 0.419936 Al
0.600000 0.200000 0.419936 Al
0.300000 0.100000 0.419936 Al
0.900000 0.800000 0.419936 Al
0.600000 0.700000 0.419936 Al
0.300000 0.600000 0.419936 Al
0.000000 0.500000 0.419936 Al
0.700000 0.400000 0.419936 Al
0.400000 0.300000 0.419936 Al
0.100000 0.200000 0.419936 Al
0.800000 0.100000 0.419936 Al
0.500000 -0.000000 0.419936 Al
0.200000 0.900000 0.419936 Al
0.850000 0.950000 0.390651 Al
0.550000 0.850000 0.390651 Al
0.250000 0.750000 0.390651 Al
0.950000 0.650000 0.390651 Al
0.650000 0.550000 0.390651 Al
0.350000 0.450000 0.390651 Al
0.050000 0.350000 0.390651 Al
0.750000 0.250000 0.390651 Al
0.450000 0.150000 0.390651 Al
0.150000 0.050000 0.390651 Al
0.050000 0.850000 0.390651 Al
0.750000 0.750000 0.390651 Al
0.450000 0.650000 0.390651 Al
0.150000 0.550000 0.390651 Al
0.850000 0.450000 0.390651 Al
0.550000 0.350000 0.390651 Al
0.250000 0.250000 0.390651 Al
0.950000 0.150000 0.390651 Al
0.650000 0.050000 0.390651 Al
0.350000 0.950000 0.390651 Al
0.000000 -0.000000 0.043928 In
0.666667 0.333333 0.043928 In
0.333333 0.666667 0.043928 In
0.666667 0.666667 0.043928 In
0.333333 -0.000000 0.043928 In
0.000000 0.333333 0.043928 In
0.333333 0.333333 0.043928 In
0.000000 0.666667 0.043928 In
0.666667 -0.000000 0.043928 In
0.833333 0.166667 1.000000 In
0.500000 0.500000 1.000000 In
0.166667 0.833333 1.000000 In
0.500000 0.833333 1.000000 In
0.166667 0.166667 1.000000 In
0.833333 0.500000 1.000000 In
0.166667 0.500000 1.000000 In
0.833333 0.833333 1.000000 In
0.500000 0.166667 1.000000 In
0.000000 -0.000000 0.131785 In
0.666667 0.333333 0.131785 In
0.333333 0.666667 0.131785 In
0.666667 0.666667 0.131785 In
0.333333 -0.000000 0.131785 In
0.000000 0.333333 0.131785 In
0.333333 0.333333 0.131785 In
0.000000 0.666667 0.131785 In
0.666667 -0.000000 0.131785 In
0.833333 0.166667 0.087856 In
0.500000 0.500000 0.087856 In
0.166667 0.833333 0.087856 In
0.500000 0.833333 0.087856 In
0.166667 0.166667 0.087856 In
0.833333 0.500000 0.087856 In
0.166667 0.500000 0.087856 In
0.833333 0.833333 0.087856 In
0.500000 0.166667 0.087856 In
0.000000 -0.000000 0.219641 In
0.666667 0.333333 0.219641 In
0.333333 0.666667 0.219641 In
0.666667 0.666667 0.219641 In
0.333333 -0.000000 0.219641 In
0.000000 0.333333 0.219641 In
0.333333 0.333333 0.219641 In
0.000000 0.666667 0.219641 In
0.666667 -0.000000 0.219641 In
0.833333 0.166667 0.175713 In
0.500000 0.500000 0.175713 In
0.166667 0.833333 0.175713 In
0.500000 0.833333 0.175713 In
0.166667 0.166667 0.175713 In
0.833333 0.500000 0.175713 In
0.166667 0.500000 0.175713 In
0.833333 0.833333 0.175713 In
0.500000 0.166667 0.175713 In
0.833333 -0.000000 0.065892 As
0.500000 0.333333 0.065892 As
0.166667 0.666667 0.065892 As
0.500000 0.666667 0.065892 As
0.166667 -0.000000 0.065892 As
0.833333 0.333333 0.065892 As
0.166667 0.333333 0.065892 As
0.833333 0.666667 0.065892 As
0.500000 -0.000000 0.065892 As
0.666667 0.166667 0.021964 As
0.333333 0.500000 0.021964 As
1.000000 0.833333 0.021964 As
0.333333 0.833333 0.021964 As
0.000000 0.166667 0.021964 As
0.666667 0.500000 0.021964 As
0.000000 0.500000 0.021964 As
0.666667 0.833333 0.021964 As
0.333333 0.166667 0.021964 As
0.833333 -0.000000 0.153749 As
0.500000 0.333333 0.153749 As
0.166667 0.666667 0.153749 As
0.500000 0.666667 0.153749 As
0.166667 -0.000000 0.153749 As
0.833333 0.333333 0.153749 As
0.166667 0.333333 0.153749 As
0.833333 0.666667 0.153749 As
0.500000 -0.000000 0.153749 As
0.666667 0.166667 0.109821 As
0.333333 0.500000 0.109821 As
1.000000 0.833333 0.109821 As
0.333333 0.833333 0.109821 As
0.000000 0.166667 0.109821 As
0.666667 0.500000 0.109821 As
0.000000 0.500000 0.109821 As
0.666667 0.833333 0.109821 As
0.333333 0.166667 0.109821 As
0.833333 -0.000000 0.241605 As
0.500000 0.333333 0.241605 As
0.166667 0.666667 0.241605 As
0.500000 0.666667 0.241605 As
0.166667 -0.000000 0.241605 As
0.833333 0.333333 0.241605 As
0.166667 0.333333 0.241605 As
0.833333 0.666667 0.241605 As
0.500000 -0.000000 0.241605 As
0.666667 0.166667 0.197677 As
0.333333 0.500000 0.197677 As
1.000000 0.833333 0.197677 As
0.333333 0.833333 0.197677 As
0.000000 0.166667 0.197677 As
0.666667 0.500000 0.197677 As
0.000000 0.500000 0.197677 As
0.666667 0.833333 0.197677 As
0.333333 0.166667 0.197677 As
