Al27 In12 As12
1.0
-4.283936 -7.419994 0.000000
-4.283936 7.419994 0.000000
0.000000 0.000000 -56.482757
Al In As
27 12 12
direct
0.666667 0.666667 0.209250 Al
0.666667 0.333333 0.209250 Al
0.666667 0.000000 0.209250 Al
0.333333 0.333333 0.209250 Al
0.333333 0.000000 0.209250 Al
0.333333 0.666667 0.209250 Al
0.000000 0.000000 0.209250 Al
1.000000 0.666667 0.209250 Al
1.000000 0.333333 0.209250 Al
0.444444 0.888889 0.250535 Al
0.444444 0.555556 0.250535 Al
0.444444 0.222222 0.250535 Al
0.111111 0.555556 0.250535 Al
0.111111 0.222222 0.250535 Al
0.111111 0.888889 0.250535 Al
0.777778 0.222222 0.250535 Al
0.777778 0.888889 0.250535 Al
0.777778 0.555556 0.250535 Al
0.222222 0.444444 0.291819 Al
0.222222 0.111111 0.291819 Al
0.222222 0.777778 0.291819 Al
0.888889 0.111111 0.291819 Al
0.888889 0.777778 0.291819 Al
0.888889 0.444444 0.291819 Al
0.555556 0.777778 0.291819 Al
0.555556 0.444444 0.291819 Al
0.555556 0.111111 0.291819 Al
0.000000 0.000000 0.000000 In
1.000000 0.500000 0.000000 In
0.500000 0.500000 0.000000 In
0.500000 0.000000 0.000000 In
0.666667 0.333333 0.061927 In
0.666667 0.833333 0.061927 In
0.166667 0.833333 0.061927 In
0.166667 0.333333 0.061927 In
0.333333 0.666667 0.123854 In
0.333333 0.166667 0.123854 In
0.833333 0.166667 0.123854 In
0.833333 0.666667 0.123854 In
0.000000 0.000000 0.046445 As
1.000000 0.500000 0.046445 As
0.500000 0.500000 0.046445 As
0.500000 0.000000 0.046445 As
0.666667 0.333333 0.108373 As
0.666667 0.833333 0.108373 As
0.166667 0.833333 0.108373 As
0.166667 0.333333 0.108373 As
0.333333 0.666667 0.170300 As
0.333333 0.166667 0.170300 As
0.833333 0.166667 0.170300 As
0.833333 0.666667 0.170300 As
