In100 Cu290 As90 H20
1.0
13.546994 -0.000000 -0.000000
-0.000000 13.546994 -0.000000
-0.000000 -0.000000 97.222400
In Cu As H
100 290 90 20
direct
0.000000 0.000000 0.295996 In
0.400000 0.200000 0.295996 In
0.800000 0.400000 0.295996 In
0.200000 0.600000 0.295996 In
0.600000 0.800000 0.295996 In
0.100000 0.300000 0.295996 In
0.500000 0.500000 0.295996 In
0.900000 0.700000 0.295996 In
0.300000 0.900000 0.295996 In
0.700000 0.100000 0.295996 In
0.200000 0.100000 0.264838 In
0.600000 0.300000 0.264838 In
0.000000 0.500000 0.264838 In
0.400000 0.700000 0.264838 In
0.800000 0.900000 0.264838 In
0.900000 0.200000 0.264838 In
0.300000 0.400000 0.264838 In
0.700000 0.600000 0.264838 In
0.100000 0.800000 0.264838 In
0.500000 0.000000 0.264838 In
0.000000 0.000000 0.233681 In
0.400000 0.200000 0.233681 In
0.800000 0.400000 0.233681 In
0.200000 0.600000 0.233681 In
0.600000 0.800000 0.233681 In
0.100000 0.300000 0.233681 In
0.500000 0.500000 0.233681 In
0.900000 0.700000 0.233681 In
0.300000 0.900000 0.233681 In
0.700000 0.100000 0.233681 In
0.200000 0.100000 0.202523 In
0.600000 0.300000 0.202523 In
0.000000 0.500000 0.202523 In
0.400000 0.700000 0.202523 In
0.800000 0.900000 0.202523 In
0.900000 0.200000 0.202523 In
0.300000 0.400000 0.202523 In
0.700000 0.600000 0.202523 In
0.100000 0.800000 0.202523 In
0.500000 0.000000 0.202523 In
0.000000 0.000000 0.171366 In
0.400000 0.200000 0.171366 In
0.800000 0.400000 0.171366 In
0.200000 0.600000 0.171366 In
0.600000 0.800000 0.171366 In
0.100000 0.300000 0.171366 In
0.500000 0.500000 0.171366 In
0.900000 0.700000 0.171366 In
0.300000 0.900000 0.171366 In
0.700000 0.100000 0.171366 In
0.200000 0.100000 0.140208 In
0.600000 0.300000 0.140208 In
0.000000 0.500000 0.140208 In
0.400000 0.700000 0.140208 In
0.800000 0.900000 0.140208 In
0.900000 0.200000 0.140208 In
0.300000 0.400000 0.140208 In
0.700000 0.600000 0.140208 In
0.100000 0.800000 0.140208 In
0.500000 0.000000 0.140208 In
0.000000 0.000000 0.109051 In
0.400000 0.200000 0.109051 In
0.800000 0.400000 0.109051 In
0.200000 0.600000 0.109051 In
0.600000 0.800000 0.109051 In
0.100000 0.300000 0.109051 In
0.500000 0.500000 0.109051 In
0.900000 0.700000 0.109051 In
0.300000 0.900000 0.109051 In
0.700000 0.100000 0.109051 In
0.200000 0.100000 0.077894 In
0.600000 0.300000 0.077894 In
0.000000 0.500000 0.077894 In
0.400000 0.700000 0.077894 In
0.800000 0.900000 0.077894 In
0.900000 0.200000 0.077894 In
0.300000 0.400000 0.077894 In
0.700000 0.600000 0.077894 In
0.100000 0.800000 0.077894 In
0.500000 0.000000 0.077894 In
0.000000 0.000000 0.046736 In
0.400000 0.200000 0.046736 In
0.800000 0.400000 0.046736 In
0.200000 0.600000 0.046736 In
0.600000 0.800000 0.046736 In
0.100000 0.300000 0.046736 In
0.500000 0.500000 0.046736 In
0.900000 0.700000 0.046736 In
0.300000 0.900000 0.046736 In
0.700000 0.100000 0.046736 In
0.200000 0.100000 0.015579 In
0.600000 0.300000 0.015579 In
0.000000 0.500000 0.015579 In
0.400000 0.700000 0.015579 In
0.800000 0.900000 0.015579 In
0.900000 0.200000 0.015579 In
0.300000 0.400000 0.015579 In
0.700000 0.600000 0.015579 In
0.100000 0.800000 0.015579 In
0.500000 0.000000 0.015579 In
0.000000 0.000000 0.485715 Cu
0.103448 0.241379 0.485715 Cu
0.206897 0.482759 0.485715 Cu
0.310345 0.724138 0.485715 Cu
0.413793 0.965517 0.485715 Cu
0.517241 0.206897 0.485715 Cu
0.620690 0.448276 0.485715 Cu
0.724138 0.689655 0.485715 Cu
0.827586 0.931034 0.485715 Cu
0.931034 0.172414 0.485715 Cu
0.034483 0.413793 0.485715 Cu
0.137931 0.655172 0.485715 Cu
0.241379 0.896552 0.485715 Cu
0.344828 0.137931 0.485715 Cu
0.448276 0.379310 0.485715 Cu
0.551724 0.620690 0.485715 Cu
0.655172 0.862069 0.485715 Cu
0.758621 0.103448 0.485715 Cu
0.862069 0.344828 0.485715 Cu
0.965517 0.586207 0.485715 Cu
0.068966 0.827586 0.485715 Cu
0.172414 0.068966 0.485715 Cu
0.275862 0.310345 0.485715 Cu
0.379310 0.551724 0.485715 Cu
0.482759 0.793103 0.485715 Cu
0.586207 0.034483 0.485715 Cu
0.689655 0.275862 0.485715 Cu
0.793103 0.517241 0.485715 Cu
0.896552 0.758621 0.485715 Cu
0.051724 0.120690 0.467150 Cu
0.155172 0.362069 0.467150 Cu
0.258621 0.603448 0.467150 Cu
0.362069 0.844828 0.467150 Cu
0.465517 0.086207 0.467150 Cu
0.568966 0.327586 0.467150 Cu
0.672414 0.568966 0.467150 Cu
0.775862 0.810345 0.467150 Cu
0.879310 0.051724 0.467150 Cu
0.982759 0.293103 0.467150 Cu
0.086207 0.534483 0.467150 Cu
0.189655 0.775862 0.467150 Cu
0.293103 0.017241 0.467150 Cu
0.396552 0.258621 0.467150 Cu
0.500000 0.500000 0.467150 Cu
0.603448 0.741379 0.467150 Cu
0.706897 0.982759 0.467150 Cu
0.810345 0.224138 0.467150 Cu
0.913793 0.465517 0.467150 Cu
0.017241 0.706897 0.467150 Cu
0.120690 0.948276 0.467150 Cu
0.224138 0.189655 0.467150 Cu
0.327586 0.431034 0.467150 Cu
0.431034 0.672414 0.467150 Cu
0.534483 0.913793 0.467150 Cu
0.637931 0.155172 0.467150 Cu
0.741379 0.396552 0.467150 Cu
0.844828 0.637931 0.467150 Cu
0.948276 0.879310 0.467150 Cu
0.000000 0.000000 0.448584 Cu
0.103448 0.241379 0.448584 Cu
0.206897 0.482759 0.448584 Cu
0.310345 0.724138 0.448584 Cu
0.413793 0.965517 0.448584 Cu
0.517241 0.206897 0.448584 Cu
0.620690 0.448276 0.448584 Cu
0.724138 0.689655 0.448584 Cu
0.827586 0.931034 0.448584 Cu
0.931034 0.172414 0.448584 Cu
0.034483 0.413793 0.448584 Cu
0.137931 0.655172 0.448584 Cu
0.241379 0.896552 0.448584 Cu
0.344828 0.137931 0.448584 Cu
0.448276 0.379310 0.448584 Cu
0.551724 0.620690 0.448584 Cu
0.655172 0.862069 0.448584 Cu
0.758621 0.103448 0.448584 Cu
0.862069 0.344828 0.448584 Cu
0.965517 0.586207 0.448584 Cu
0.068966 0.827586 0.448584 Cu
0.172414 0.068966 0.448584 Cu
0.275862 0.310345 0.448584 Cu
0.379310 0.551724 0.448584 Cu
0.482759 0.793103 0.448584 Cu
0.586207 0.034483 0.448584 Cu
0.689655 0.275862 0.448584 Cu
0.793103 0.517241 0.448584 Cu
0.896552 0.758621 0.448584 Cu
0.051724 0.120690 0.430018 Cu
0.155172 0.362069 0.430018 Cu
0.258621 0.603448 0.430018 Cu
0.362069 0.844828 0.430018 Cu
0.465517 0.086207 0.430018 Cu
0.568966 0.327586 0.430018 Cu
0.672414 0.568966 0.430018 Cu
0.775862 0.810345 0.430018 Cu
0.879310 0.051724 0.430018 Cu
0.982759 0.293103 0.430018 Cu
0.086207 0.534483 0.430018 Cu
0.189655 0.775862 0.430018 Cu
0.293103 0.017241 0.430018 Cu
0.396552 0.258621 0.430018 Cu
0.500000 0.500000 0.430018 Cu
0.603448 0.741379 0.430018 Cu
0.706897 0.982759 0.430018 Cu
0.810345 0.224138 0.430018 Cu
0.913793 0.465517 0.430018 Cu
0.017241 0.706897 0.430018 Cu
0.120690 0.948276 0.430018 Cu
0.224138 0.189655 0.430018 Cu
0.327586 0.431034 0.430018 Cu
0.431034 0.672414 0.430018 Cu
0.534483 0.913793 0.430018 Cu
0.637931 0.155172 0.430018 Cu
0.741379 0.396552 0.430018 Cu
0.844828 0.637931 0.430018 Cu
0.948276 0.879310 0.430018 Cu
0.000000 0.000000 0.411453 Cu
0.103448 0.241379 0.411453 Cu
0.206897 0.482759 0.411453 Cu
0.310345 0.724138 0.411453 Cu
0.413793 0.965517 0.411453 Cu
0.517241 0.206897 0.411453 Cu
0.620690 0.448276 0.411453 Cu
0.724138 0.689655 0.411453 Cu
0.827586 0.931034 0.411453 Cu
0.931034 0.172414 0.411453 Cu
0.034483 0.413793 0.411453 Cu
0.137931 0.655172 0.411453 Cu
0.241379 0.896552 0.411453 Cu
0.344828 0.137931 0.411453 Cu
0.448276 0.379310 0.411453 Cu
0.551724 0.620690 0.411453 Cu
0.655172 0.862069 0.411453 Cu
0.758621 0.103448 0.411453 Cu
0.862069 0.344828 0.411453 Cu
0.965517 0.586207 0.411453 Cu
0.068966 0.827586 0.411453 Cu
0.172414 0.068966 0.411453 Cu
0.275862 0.310345 0.411453 Cu
0.379310 0.551724 0.411453 Cu
0.482759 0.793103 0.411453 Cu
0.586207 0.034483 0.411453 Cu
0.689655 0.275862 0.411453 Cu
0.793103 0.517241 0.411453 Cu
0.896552 0.758621 0.411453 Cu
0.051724 0.120690 0.392887 Cu
0.155172 0.362069 0.392887 Cu
0.258621 0.603448 0.392887 Cu
0.362069 0.844828 0.392887 Cu
0.465517 0.086207 0.392887 Cu
0.568966 0.327586 0.392887 Cu
0.672414 0.568966 0.392887 Cu
0.775862 0.810345 0.392887 Cu
0.879310 0.051724 0.392887 Cu
0.982759 0.293103 0.392887 Cu
0.086207 0.534483 0.392887 Cu
0.189655 0.775862 0.392887 Cu
0.293103 0.017241 0.392887 Cu
0.396552 0.258621 0.392887 Cu
0.500000 0.500000 0.392887 Cu
0.603448 0.741379 0.392887 Cu
0.706897 0.982759 0.392887 Cu
0.810345 0.224138 0.392887 Cu
0.913793 0.465517 0.392887 Cu
0.017241 0.706897 0.392887 Cu
0.120690 0.948276 0.392887 Cu
0.224138 0.189655 0.392887 Cu
0.327586 0.431034 0.392887 Cu
0.431034 0.672414 0.392887 Cu
0.534483 0.913793 0.392887 Cu
0.637931 0.155172 0.392887 Cu
0.741379 0.396552 0.392887 Cu
0.844828 0.637931 0.392887 Cu
0.948276 0.879310 0.392887 Cu
0.000000 0.000000 0.374321 Cu
0.103448 0.241379 0.374321 Cu
0.206897 0.482759 0.374321 Cu
0.310345 0.724138 0.374321 Cu
0.413793 0.965517 0.374321 Cu
0.517241 0.206897 0.374321 Cu
0.620690 0.448276 0.374321 Cu
0.724138 0.689655 0.374321 Cu
0.827586 0.931034 0.374321 Cu
0.931034 0.172414 0.374321 Cu
0.034483 0.413793 0.374321 Cu
0.137931 0.655172 0.374321 Cu
0.241379 0.896552 0.374321 Cu
0.344828 0.137931 0.374321 Cu
0.448276 0.379310 0.374321 Cu
0.551724 0.620690 0.374321 Cu
0.655172 0.862069 0.374321 Cu
0.758621 0.103448 0.374321 Cu
0.862069 0.344828 0.374321 Cu
0.965517 0.586207 0.374321 Cu
0.068966 0.827586 0.374321 Cu
0.172414 0.068966 0.374321 Cu
0.275862 0.310345 0.374321 Cu
0.379310 0.551724 0.374321 Cu
0.482759 0.793103 0.374321 Cu
0.586207 0.034483 0.374321 Cu
0.689655 0.275862 0.374321 Cu
0.793103 0.517241 0.374321 Cu
0.896552 0.758621 0.374321 Cu
0.051724 0.120690 0.355755 Cu
0.155172 0.362069 0.355755 Cu
0.258621 0.603448 0.355755 Cu
0.362069 0.844828 0.355755 Cu
0.465517 0.086207 0.355755 Cu
0.568966 0.327586 0.355755 Cu
0.672414 0.568966 0.355755 Cu
0.775862 0.810345 0.355755 Cu
0.879310 0.051724 0.355755 Cu
0.982759 0.293103 0.355755 Cu
0.086207 0.534483 0.355755 Cu
0.189655 0.775862 0.355755 Cu
0.293103 0.017241 0.355755 Cu
0.396552 0.258621 0.355755 Cu
0.500000 0.500000 0.355755 Cu
0.603448 0.741379 0.355755 Cu
0.706897 0.982759 0.355755 Cu
0.810345 0.224138 0.355755 Cu
0.913793 0.465517 0.355755 Cu
0.017241 0.706897 0.355755 Cu
0.120690 0.948276 0.355755 Cu
0.224138 0.189655 0.355755 Cu
0.327586 0.431034 0.355755 Cu
0.431034 0.672414 0.355755 Cu
0.534483 0.913793 0.355755 Cu
0.637931 0.155172 0.355755 Cu
0.741379 0.396552 0.355755 Cu
0.844828 0.637931 0.355755 Cu
0.948276 0.879310 0.355755 Cu
0.000000 0.000000 0.337190 Cu
0.103448 0.241379 0.337190 Cu
0.206897 0.482759 0.337190 Cu
0.310345 0.724138 0.337190 Cu
0.413793 0.965517 0.337190 Cu
0.517241 0.206897 0.337190 Cu
0.620690 0.448276 0.337190 Cu
0.724138 0.689655 0.337190 Cu
0.827586 0.931034 0.337190 Cu
0.931034 0.172414 0.337190 Cu
0.034483 0.413793 0.337190 Cu
0.137931 0.655172 0.337190 Cu
0.241379 0.896552 0.337190 Cu
0.344828 0.137931 0.337190 Cu
0.448276 0.379310 0.337190 Cu
0.551724 0.620690 0.337190 Cu
0.655172 0.862069 0.337190 Cu
0.758621 0.103448 0.337190 Cu
0.862069 0.344828 0.337190 Cu
0.965517 0.586207 0.337190 Cu
0.068966 0.827586 0.337190 Cu
0.172414 0.068966 0.337190 Cu
0.275862 0.310345 0.337190 Cu
0.379310 0.551724 0.337190 Cu
0.482759 0.793103 0.337190 Cu
0.586207 0.034483 0.337190 Cu
0.689655 0.275862 0.337190 Cu
0.793103 0.517241 0.337190 Cu
0.896552 0.758621 0.337190 Cu
0.051724 0.120690 0.318624 Cu
0.155172 0.362069 0.318624 Cu
0.258621 0.603448 0.318624 Cu
0.362069 0.844828 0.318624 Cu
0.465517 0.086207 0.318624 Cu
0.568966 0.327586 0.318624 Cu
0.672414 0.568966 0.318624 Cu
0.775862 0.810345 0.318624 Cu
0.879310 0.051724 0.318624 Cu
0.982759 0.293103 0.318624 Cu
0.086207 0.534483 0.318624 Cu
0.189655 0.775862 0.318624 Cu
0.293103 0.017241 0.318624 Cu
0.396552 0.258621 0.318624 Cu
0.500000 0.500000 0.318624 Cu
0.603448 0.741379 0.318624 Cu
0.706897 0.982759 0.318624 Cu
0.810345 0.224138 0.318624 Cu
0.913793 0.465517 0.318624 Cu
0.017241 0.706897 0.318624 Cu
0.120690 0.948276 0.318624 Cu
0.224138 0.189655 0.318624 Cu
0.327586 0.431034 0.318624 Cu
0.431034 0.672414 0.318624 Cu
0.534483 0.913793 0.318624 Cu
0.637931 0.155172 0.318624 Cu
0.741379 0.396552 0.318624 Cu
0.844828 0.637931 0.318624 Cu
0.948276 0.879310 0.318624 Cu
0.250000 0.250000 0.280417 As
0.650000 0.450000 0.280417 As
0.050000 0.650000 0.280417 As
0.450000 0.850000 0.280417 As
0.850000 0.050000 0.280417 As
0.950000 0.350000 0.280417 As
0.350000 0.550000 0.280417 As
0.750000 0.750000 0.280417 As
0.150000 0.950000 0.280417 As
0.550000 0.150000 0.280417 As
0.050000 0.150000 0.249259 As
0.450000 0.350000 0.249259 As
0.850000 0.550000 0.249259 As
0.250000 0.750000 0.249259 As
0.650000 0.950000 0.249259 As
0.150000 0.450000 0.249259 As
0.550000 0.650000 0.249259 As
0.950000 0.850000 0.249259 As
0.350000 0.050000 0.249259 As
0.750000 0.250000 0.249259 As
0.250000 0.250000 0.218102 As
0.650000 0.450000 0.218102 As
0.050000 0.650000 0.218102 As
0.450000 0.850000 0.218102 As
0.850000 0.050000 0.218102 As
0.950000 0.350000 0.218102 As
0.350000 0.550000 0.218102 As
0.750000 0.750000 0.218102 As
0.150000 0.950000 0.218102 As
0.550000 0.150000 0.218102 As
0.050000 0.150000 0.186945 As
0.450000 0.350000 0.186945 As
0.850000 0.550000 0.186945 As
0.250000 0.750000 0.186945 As
0.650000 0.950000 0.186945 As
0.150000 0.450000 0.186945 As
0.550000 0.650000 0.186945 As
0.950000 0.850000 0.186945 As
0.350000 0.050000 0.186945 As
0.750000 0.250000 0.186945 As
0.250000 0.250000 0.155787 As
0.650000 0.450000 0.155787 As
0.050000 0.650000 0.155787 As
0.450000 0.850000 0.155787 As
0.850000 0.050000 0.155787 As
0.950000 0.350000 0.155787 As
0.350000 0.550000 0.155787 As
0.750000 0.750000 0.155787 As
0.150000 0.950000 0.155787 As
0.550000 0.150000 0.155787 As
0.050000 0.150000 0.124630 As
0.450000 0.350000 0.124630 As
0.850000 0.550000 0.124630 As
0.250000 0.750000 0.124630 As
0.650000 0.950000 0.124630 As
0.150000 0.450000 0.124630 As
0.550000 0.650000 0.124630 As
0.950000 0.850000 0.124630 As
0.350000 0.050000 0.124630 As
0.750000 0.250000 0.124630 As
0.250000 0.250000 0.093472 As
0.650000 0.450000 0.093472 As
0.050000 0.650000 0.093472 As
0.450000 0.850000 0.093472 As
0.850000 0.050000 0.093472 As
0.950000 0.350000 0.093472 As
0.350000 0.550000 0.093472 As
0.750000 0.750000 0.093472 As
0.150000 0.950000 0.093472 As
0.550000 0.150000 0.093472 As
0.050000 0.150000 0.062315 As
0.450000 0.350000 0.062315 As
0.850000 0.550000 0.062315 As
0.250000 0.750000 0.062315 As
0.650000 0.950000 0.062315 As
0.150000 0.450000 0.062315 As
0.550000 0.650000 0.062315 As
0.950000 0.850000 0.062315 As
0.350000 0.050000 0.062315 As
0.750000 0.250000 0.062315 As
0.250000 0.250000 0.031157 As
0.650000 0.450000 0.031157 As
0.050000 0.650000 0.031157 As
0.450000 0.850000 0.031157 As
0.850000 0.050000 0.031157 As
0.950000 0.350000 0.031157 As
0.350000 0.550000 0.031157 As
0.750000 0.750000 0.031157 As
0.150000 0.950000 0.031157 As
0.550000 0.150000 0.031157 As
0.110973 0.129676 0.006333 H
0.289027 0.070324 0.006333 H
0.510973 0.329676 0.006333 H
0.689027 0.270324 0.006333 H
0.910973 0.529676 0.006333 H
0.089027 0.470324 0.006333 H
0.310973 0.729676 0.006333 H
0.489027 0.670324 0.006333 H
0.710973 0.929676 0.006333 H
0.889027 0.870324 0.006333 H
0.810973 0.229676 0.006333 H
0.989027 0.170324 0.006333 H
0.210973 0.429676 0.006333 H
0.389027 0.370324 0.006333 H
0.610973 0.629676 0.006333 H
0.789027 0.570324 0.006333 H
0.010973 0.829676 0.006333 H
0.189027 0.770324 0.006333 H
0.410973 0.029676 0.006333 H
0.589027 0.970324 0.006333 H
