In29 Ni30 As30 H1
1.0
-2.141968 -3.709997 0.000000
-2.141968 3.709997 0.000000
0.000000 0.000000 -174.550568
In Ni As H
29 30 30 1
direct
0.666667 0.333333 0.581131 In
0.333333 0.666667 0.561092 In
0.000000 0.000000 0.541053 In
0.666667 0.333333 0.521014 In
0.333333 0.666667 0.500975 In
0.000000 0.000000 0.480936 In
0.666667 0.333333 0.460897 In
0.333333 0.666667 0.440858 In
0.000000 0.000000 0.420819 In
0.666667 0.333333 0.400780 In
0.333333 0.666667 0.380741 In
0.000000 0.000000 0.360702 In
0.666667 0.333333 0.340663 In
0.333333 0.666667 0.320624 In
0.000000 0.000000 0.300585 In
0.666667 0.333333 0.280546 In
0.333333 0.666667 0.260507 In
0.000000 0.000000 0.240468 In
0.666667 0.333333 0.220429 In
0.333333 0.666667 0.200390 In
0.000000 0.000000 0.180351 In
0.666667 0.333333 0.160312 In
0.333333 0.666667 0.140273 In
0.000000 0.000000 0.120234 In
0.666667 0.333333 0.100195 In
0.333333 0.666667 0.080156 In
0.000000 0.000000 0.060117 In
0.666667 0.333333 0.040078 In
0.333333 0.666667 0.020039 In
0.333333 0.666667 0.713550 Ni
0.666667 0.333333 0.713550 Ni
0.000000 0.000000 0.713550 Ni
0.666667 0.666667 0.701907 Ni
0.000000 0.333333 0.701907 Ni
0.333333 1.000000 0.701907 Ni
0.333333 0.333333 0.690264 Ni
0.666667 1.000000 0.690264 Ni
0.000000 0.666667 0.690264 Ni
0.333333 0.666667 0.678621 Ni
0.666667 0.333333 0.678621 Ni
0.000000 0.000000 0.678621 Ni
0.666667 0.666667 0.666979 Ni
0.000000 0.333333 0.666979 Ni
0.333333 1.000000 0.666979 Ni
0.333333 0.333333 0.655336 Ni
0.666667 1.000000 0.655336 Ni
0.000000 0.666667 0.655336 Ni
0.333333 0.666667 0.643693 Ni
0.666667 0.333333 0.643693 Ni
0.000000 0.000000 0.643693 Ni
0.666667 0.666667 0.632050 Ni
0.000000 0.333333 0.632050 Ni
0.333333 1.000000 0.632050 Ni
0.333333 0.333333 0.620407 Ni
0.666667 1.000000 0.620407 Ni
0.000000 0.666667 0.620407 Ni
0.333333 0.666667 0.608764 Ni
0.666667 0.333333 0.608764 Ni
0.000000 0.000000 0.608764 Ni
0.666667 0.333333 0.596160 As
0.333333 0.666667 0.576121 As
0.000000 0.000000 0.556082 As
0.666667 0.333333 0.536043 As
0.333333 0.666667 0.516004 As
0.000000 0.000000 0.495965 As
0.666667 0.333333 0.475926 As
0.333333 0.666667 0.455887 As
0.000000 0.000000 0.435848 As
0.666667 0.333333 0.415809 As
0.333333 0.666667 0.395770 As
0.000000 0.000000 0.375731 As
0.666667 0.333333 0.355692 As
0.333333 0.666667 0.335653 As
0.000000 0.000000 0.315614 As
0.666667 0.333333 0.295575 As
0.333333 0.666667 0.275536 As
0.000000 0.000000 0.255497 As
0.666667 0.333333 0.235458 As
0.333333 0.666667 0.215419 As
0.000000 0.000000 0.195380 As
0.666667 0.333333 0.175341 As
0.333333 0.666667 0.155302 As
0.000000 0.000000 0.135263 As
0.666667 0.333333 0.115224 As
0.333333 0.666667 0.095185 As
0.000000 0.000000 0.075146 As
0.666667 0.333333 0.055107 As
0.333333 0.666667 0.035068 As
0.000000 0.000000 0.015029 As
0.000000 0.000000 0.007295 H
