In27 Ni90 As27 H6
1.0
7.419994 0.000000 0.000000
0.000000 10.493457 0.000000
0.000000 0.000000 82.678282
In Ni As H
27 90 27 6
direct
0.166667 0.666667 0.233165 In
0.833333 0.333333 0.233165 In
0.500000 0.000000 0.233165 In
0.000000 0.000000 0.207258 In
0.666667 0.666667 0.207258 In
0.333333 0.333333 0.207258 In
0.833333 0.333333 0.181351 In
0.500000 0.000000 0.181351 In
0.166667 0.666667 0.181351 In
0.333333 0.333333 0.155444 In
0.000000 0.000000 0.155444 In
0.666667 0.666667 0.155444 In
0.166667 0.666667 0.129536 In
0.833333 0.333333 0.129536 In
0.500000 0.000000 0.129536 In
1.000000 0.000000 0.103629 In
0.666667 0.666667 0.103629 In
0.333333 0.333333 0.103629 In
0.833333 0.333333 0.077722 In
0.500000 0.000000 0.077722 In
0.166667 0.666667 0.077722 In
0.333333 0.333333 0.051815 In
0.000000 0.000000 0.051815 In
0.666667 0.666667 0.051815 In
0.166667 0.666667 0.025907 In
0.833333 0.333333 0.025907 In
0.500000 0.000000 0.025907 In
0.944444 0.388889 0.395246 Ni
0.166667 0.833333 0.395246 Ni
0.388889 0.277778 0.395246 Ni
0.611111 0.722222 0.395246 Ni
0.833333 0.166667 0.395246 Ni
0.055556 0.611111 0.395246 Ni
0.277778 0.055556 0.395246 Ni
0.500000 0.500000 0.395246 Ni
0.722222 0.944444 0.395246 Ni
0.000000 0.000000 0.380194 Ni
0.222222 0.444444 0.380194 Ni
0.444444 0.888889 0.380194 Ni
0.666667 0.333333 0.380194 Ni
0.888889 0.777778 0.380194 Ni
0.111111 0.222222 0.380194 Ni
0.333333 0.666667 0.380194 Ni
0.555556 0.111111 0.380194 Ni
0.777778 0.555556 0.380194 Ni
0.833333 0.166667 0.365141 Ni
0.055556 0.611111 0.365141 Ni
0.277778 0.055556 0.365141 Ni
0.500000 0.500000 0.365141 Ni
0.722222 0.944444 0.365141 Ni
0.944444 0.388889 0.365141 Ni
0.166667 0.833333 0.365141 Ni
0.388889 0.277778 0.365141 Ni
0.611111 0.722222 0.365141 Ni
0.111111 0.222222 0.350089 Ni
0.333333 0.666667 0.350089 Ni
0.555556 0.111111 0.350089 Ni
0.777778 0.555556 0.350089 Ni
0.000000 0.000000 0.350089 Ni
0.222222 0.444444 0.350089 Ni
0.444444 0.888889 0.350089 Ni
0.666667 0.333333 0.350089 Ni
0.888889 0.777778 0.350089 Ni
0.944444 0.388889 0.335037 Ni
0.166667 0.833333 0.335037 Ni
0.388889 0.277778 0.335037 Ni
0.611111 0.722222 0.335037 Ni
0.833333 0.166667 0.335037 Ni
0.055556 0.611111 0.335037 Ni
0.277778 0.055556 0.335037 Ni
0.500000 0.500000 0.335037 Ni
0.722222 0.944444 0.335037 Ni
0.000000 1.000000 0.319984 Ni
0.222222 0.444444 0.319984 Ni
0.444444 0.888889 0.319984 Ni
0.666667 0.333333 0.319984 Ni
0.888889 0.777778 0.319984 Ni
0.111111 0.222222 0.319984 Ni
0.333333 0.666667 0.319984 Ni
0.555556 0.111111 0.319984 Ni
0.777778 0.555556 0.319984 Ni
0.833333 0.166667 0.304932 Ni
0.055556 0.611111 0.304932 Ni
0.277778 0.055556 0.304932 Ni
0.500000 0.500000 0.304932 Ni
0.722222 0.944444 0.304932 Ni
0.944444 0.388889 0.304932 Ni
0.166667 0.833333 0.304932 Ni
0.388889 0.277778 0.304932 Ni
0.611111 0.722222 0.304932 Ni
0.111111 0.222222 0.289879 Ni
0.333333 0.666667 0.289879 Ni
0.555556 0.111111 0.289879 Ni
0.777778 0.555556 0.289879 Ni
0.000000 1.000000 0.289879 Ni
0.222222 0.444444 0.289879 Ni
0.444444 0.888889 0.289879 Ni
0.666667 0.333333 0.289879 Ni
0.888889 0.777778 0.289879 Ni
0.944444 0.388889 0.274827 Ni
0.166667 0.833333 0.274827 Ni
0.388889 0.277778 0.274827 Ni
0.611111 0.722222 0.274827 Ni
0.833333 0.166667 0.274827 Ni
0.055556 0.611111 0.274827 Ni
0.277778 0.055556 0.274827 Ni
0.500000 0.500000 0.274827 Ni
0.722222 0.944444 0.274827 Ni
0.000000 1.000000 0.259775 Ni
0.222222 0.444444 0.259775 Ni
0.444444 0.888889 0.259775 Ni
0.666667 0.333333 0.259775 Ni
0.888889 0.777778 0.259775 Ni
0.111111 0.222222 0.259775 Ni
0.333333 0.666667 0.259775 Ni
0.555556 0.111111 0.259775 Ni
0.777778 0.555556 0.259775 Ni
0.500000 0.250000 0.233165 As
0.166667 0.916667 0.233165 As
0.833333 0.583333 0.233165 As
0.000000 0.250000 0.207258 As
0.666667 0.916667 0.207258 As
0.333333 0.583333 0.207258 As
0.833333 0.583333 0.181351 As
0.500000 0.250000 0.181351 As
0.166667 0.916667 0.181351 As
0.333333 0.583333 0.155444 As
0.000000 0.250000 0.155444 As
0.666667 0.916667 0.155444 As
0.500000 0.250000 0.129536 As
0.166667 0.916667 0.129536 As
0.833333 0.583333 0.129536 As
0.000000 0.250000 0.103629 As
0.666667 0.916667 0.103629 As
0.333333 0.583333 0.103629 As
0.833333 0.583333 0.077722 As
0.500000 0.250000 0.077722 As
0.166667 0.916667 0.077722 As
0.333333 0.583333 0.051815 As
0.000000 0.250000 0.051815 As
0.666667 0.916667 0.051815 As
0.500000 0.250000 0.025907 As
0.166667 0.916667 0.025907 As
0.833333 0.583333 0.025907 As
0.414232 0.292884 0.012575 H
0.080899 0.959551 0.012575 H
0.747566 0.626217 0.012575 H
0.265585 0.617207 0.010531 H
0.932252 0.283874 0.010531 H
0.598919 0.950541 0.010531 H
