In35 Fe130 Sb35 H10
1.0
0.000000 0.000000 10.244831
-0.000000 10.244831 0.000000
-79.094750 -0.000000 0.000000
In Fe Sb H
35 117 35 10
direct
0.000000 0.000000 0.286718 In
0.400000 0.200000 0.286718 In
0.800000 0.400000 0.286718 In
0.200000 0.600000 0.286718 In
0.600000 0.800000 0.286718 In
0.700000 0.100000 0.245758 In
0.100000 0.300000 0.245758 In
0.500000 0.500000 0.245758 In
0.900000 0.700000 0.245758 In
0.300000 0.900000 0.245758 In
0.000000 0.000000 0.204799 In
0.400000 0.200000 0.204799 In
0.800000 0.400000 0.204799 In
0.200000 0.600000 0.204799 In
0.600000 0.800000 0.204799 In
0.700000 0.100000 0.163839 In
0.100000 0.300000 0.163839 In
0.500000 0.500000 0.163839 In
0.900000 0.700000 0.163839 In
0.300000 0.900000 0.163839 In
0.000000 0.000000 0.122879 In
0.400000 0.200000 0.122879 In
0.800000 0.400000 0.122879 In
0.200000 0.600000 0.122879 In
0.600000 0.800000 0.122879 In
0.700000 0.100000 0.081919 In
0.100000 0.300000 0.081919 In
0.500000 0.500000 0.081919 In
0.900000 0.700000 0.081919 In
0.300000 0.900000 0.081919 In
0.000000 0.000000 0.040960 In
0.400000 0.200000 0.040960 In
0.800000 0.400000 0.040960 In
0.200000 0.600000 0.040960 In
0.600000 0.800000 0.040960 In
0.029283 0.058566 0.476160 Fe
0.875437 0.289335 0.476160 Fe
0.721591 0.520105 0.476160 Fe
0.567745 0.750874 0.476160 Fe
0.413898 0.981643 0.476160 Fe
0.260052 0.212412 0.476160 Fe
0.106206 0.443182 0.476160 Fe
0.952360 0.673951 0.476160 Fe
0.798514 0.904720 0.476160 Fe
0.644668 0.135489 0.476160 Fe
0.490822 0.366258 0.476160 Fe
0.336975 0.597028 0.476160 Fe
0.183129 0.827797 0.476160 Fe
0.067745 0.250874 0.458042 Fe
0.913898 0.481643 0.458042 Fe
0.760052 0.712412 0.458042 Fe
0.606206 0.943182 0.458042 Fe
0.452360 0.173951 0.458042 Fe
0.298514 0.404720 0.458042 Fe
0.144668 0.635489 0.458042 Fe
0.990822 0.866258 0.458042 Fe
0.836975 0.097028 0.458042 Fe
0.683129 0.327797 0.458042 Fe
0.529283 0.558566 0.458042 Fe
0.375437 0.789335 0.458042 Fe
0.221591 0.020105 0.458042 Fe
0.029283 0.058566 0.439925 Fe
0.875437 0.289335 0.439925 Fe
0.721591 0.520105 0.439925 Fe
0.567745 0.750874 0.439925 Fe
0.413898 0.981643 0.439925 Fe
0.260052 0.212412 0.439925 Fe
0.106206 0.443182 0.439925 Fe
0.952360 0.673951 0.439925 Fe
0.798514 0.904720 0.439925 Fe
0.644668 0.135489 0.439925 Fe
0.490822 0.366258 0.439925 Fe
0.336975 0.597028 0.439925 Fe
0.183129 0.827797 0.439925 Fe
0.067745 0.250874 0.421807 Fe
0.913898 0.481643 0.421807 Fe
0.760052 0.712412 0.421807 Fe
0.606206 0.943182 0.421807 Fe
0.452360 0.173951 0.421807 Fe
0.298514 0.404720 0.421807 Fe
0.144668 0.635489 0.421807 Fe
0.990822 0.866258 0.421807 Fe
0.836975 0.097028 0.421807 Fe
0.683129 0.327797 0.421807 Fe
0.529283 0.558566 0.421807 Fe
0.375437 0.789335 0.421807 Fe
0.221591 0.020105 0.421807 Fe
0.029283 0.058566 0.403690 Fe
0.875437 0.289335 0.403690 Fe
0.721591 0.520105 0.403690 Fe
0.567745 0.750874 0.403690 Fe
0.413898 0.981643 0.403690 Fe
0.260052 0.212412 0.403690 Fe
0.106206 0.443182 0.403690 Fe
0.952360 0.673951 0.403690 Fe
0.798514 0.904720 0.403690 Fe
0.644668 0.135489 0.403690 Fe
0.490822 0.366258 0.403690 Fe
0.336975 0.597028 0.403690 Fe
0.183129 0.827797 0.403690 Fe
0.067745 0.250874 0.385572 Fe
0.913898 0.481643 0.385572 Fe
0.760052 0.712412 0.385572 Fe
0.606206 0.943182 0.385572 Fe
0.452360 0.173951 0.385572 Fe
0.298514 0.404720 0.385572 Fe
0.144668 0.635489 0.385572 Fe
0.990822 0.866258 0.385572 Fe
0.836975 0.097028 0.385572 Fe
0.683129 0.327797 0.385572 Fe
0.529283 0.558566 0.385572 Fe
0.375437 0.789335 0.385572 Fe
0.221591 0.020105 0.385572 Fe
0.029283 0.058566 0.367455 Fe
0.875437 0.289335 0.367455 Fe
0.721591 0.520105 0.367455 Fe
0.567745 0.750874 0.367455 Fe
0.413898 0.981643 0.367455 Fe
0.260052 0.212412 0.367455 Fe
0.106206 0.443182 0.367455 Fe
0.952360 0.673951 0.367455 Fe
0.798514 0.904720 0.367455 Fe
0.644668 0.135489 0.367455 Fe
0.490822 0.366258 0.367455 Fe
0.336975 0.597028 0.367455 Fe
0.183129 0.827797 0.367455 Fe
0.067745 0.250874 0.349337 Fe
0.913898 0.481643 0.349337 Fe
0.760052 0.712412 0.349337 Fe
0.606206 0.943182 0.349337 Fe
0.452360 0.173951 0.349337 Fe
0.298514 0.404720 0.349337 Fe
0.144668 0.635489 0.349337 Fe
0.990822 0.866258 0.349337 Fe
0.836975 0.097028 0.349337 Fe
0.683129 0.327797 0.349337 Fe
0.529283 0.558566 0.349337 Fe
0.375437 0.789335 0.349337 Fe
0.221591 0.020105 0.349337 Fe
0.029283 0.058566 0.331220 Fe
0.875437 0.289335 0.331220 Fe
0.721591 0.520105 0.331220 Fe
0.260052 0.212412 0.331220 Fe
0.106206 0.443182 0.331220 Fe
0.952360 0.673951 0.331220 Fe
0.644668 0.135489 0.331220 Fe
0.490822 0.366258 0.331220 Fe
0.336975 0.597028 0.331220 Fe
0.567745 0.750874 0.331220 Fe
0.413898 0.981643 0.331220 Fe
0.798514 0.904720 0.331220 Fe
0.183129 0.827797 0.331220 Fe
0.200000 0.100000 0.307198 Sb
0.600000 0.300000 0.307198 Sb
0.000000 0.500000 0.307198 Sb
0.800000 0.900000 0.307198 Sb
0.400000 0.700000 0.307198 Sb
0.500000 0.000000 0.266238 Sb
0.900000 0.200000 0.266238 Sb
0.300000 0.400000 0.266238 Sb
0.700000 0.600000 0.266238 Sb
0.100000 0.800000 0.266238 Sb
0.200000 0.100000 0.225279 Sb
0.600000 0.300000 0.225279 Sb
0.000000 0.500000 0.225279 Sb
0.800000 0.900000 0.225279 Sb
0.400000 0.700000 0.225279 Sb
0.500000 0.000000 0.184319 Sb
0.900000 0.200000 0.184319 Sb
0.300000 0.400000 0.184319 Sb
0.700000 0.600000 0.184319 Sb
0.100000 0.800000 0.184319 Sb
0.200000 0.100000 0.143359 Sb
0.600000 0.300000 0.143359 Sb
0.000000 0.500000 0.143359 Sb
0.800000 0.900000 0.143359 Sb
0.400000 0.700000 0.143359 Sb
0.500000 0.000000 0.102399 Sb
0.900000 0.200000 0.102399 Sb
0.300000 0.400000 0.102399 Sb
0.700000 0.600000 0.102399 Sb
0.100000 0.800000 0.102399 Sb
0.200000 0.100000 0.061440 Sb
0.600000 0.300000 0.061440 Sb
0.000000 0.500000 0.061440 Sb
0.800000 0.900000 0.061440 Sb
0.400000 0.700000 0.061440 Sb
0.944505 0.110990 0.025774 H
0.055495 0.889010 0.025773 H
0.655495 0.689010 0.025772 H
0.344505 0.310990 0.025772 H
0.144505 0.710990 0.025772 H
0.855495 0.289010 0.025772 H
0.255495 0.489010 0.025771 H
0.744505 0.510990 0.025771 H
0.455495 0.089010 0.025771 H
0.544505 0.910990 0.025771 H
