In15 Fe130 Sb15 H10
1.0
0.000000 0.000000 10.244831
-0.000000 10.244831 0.000000
-66.135950 -0.000000 0.000000
In Fe Sb H
15 130 15 10
direct
0.000000 0.000000 0.146956 In
0.400000 0.200000 0.146956 In
0.800000 0.400000 0.146956 In
0.200000 0.600000 0.146956 In
0.600000 0.800000 0.146956 In
0.700000 0.100000 0.097971 In
0.100000 0.300000 0.097971 In
0.500000 0.500000 0.097971 In
0.900000 0.700000 0.097971 In
0.300000 0.900000 0.097971 In
0.000000 0.000000 0.048985 In
0.400000 0.200000 0.048985 In
0.800000 0.400000 0.048985 In
0.200000 0.600000 0.048985 In
0.600000 0.800000 0.048985 In
0.067745 0.250874 0.395185 Fe
0.913898 0.481643 0.395185 Fe
0.452360 0.173951 0.395185 Fe
0.298514 0.404720 0.395185 Fe
0.144668 0.635489 0.395185 Fe
0.836975 0.097028 0.395185 Fe
0.683129 0.327797 0.395185 Fe
0.529283 0.558566 0.395185 Fe
0.760052 0.712412 0.395185 Fe
0.606206 0.943182 0.395185 Fe
0.990822 0.866258 0.395185 Fe
0.375437 0.789335 0.395185 Fe
0.221591 0.020105 0.395185 Fe
0.029283 0.058566 0.373518 Fe
0.875437 0.289335 0.373518 Fe
0.721591 0.520105 0.373518 Fe
0.260052 0.212412 0.373518 Fe
0.106206 0.443182 0.373518 Fe
0.952360 0.673951 0.373518 Fe
0.644668 0.135489 0.373518 Fe
0.490822 0.366258 0.373518 Fe
0.336975 0.597028 0.373518 Fe
0.567745 0.750874 0.373518 Fe
0.413898 0.981643 0.373518 Fe
0.798514 0.904720 0.373518 Fe
0.183129 0.827797 0.373518 Fe
0.067745 0.250874 0.351850 Fe
0.913898 0.481643 0.351850 Fe
0.452360 0.173951 0.351850 Fe
0.298514 0.404720 0.351850 Fe
0.144668 0.635489 0.351850 Fe
0.836975 0.097028 0.351850 Fe
0.683129 0.327797 0.351850 Fe
0.529283 0.558566 0.351850 Fe
0.760052 0.712412 0.351850 Fe
0.606206 0.943182 0.351850 Fe
0.990822 0.866258 0.351850 Fe
0.375437 0.789335 0.351850 Fe
0.221591 0.020105 0.351850 Fe
0.029283 0.058566 0.330183 Fe
0.875437 0.289335 0.330183 Fe
0.721591 0.520105 0.330183 Fe
0.260052 0.212412 0.330183 Fe
0.106206 0.443182 0.330183 Fe
0.952360 0.673951 0.330183 Fe
0.644668 0.135489 0.330183 Fe
0.490822 0.366258 0.330183 Fe
0.336975 0.597028 0.330183 Fe
0.567745 0.750874 0.330183 Fe
0.413898 0.981643 0.330183 Fe
0.798514 0.904720 0.330183 Fe
0.183129 0.827797 0.330183 Fe
0.067745 0.250874 0.308515 Fe
0.913898 0.481643 0.308515 Fe
0.452360 0.173951 0.308515 Fe
0.298514 0.404720 0.308515 Fe
0.144668 0.635489 0.308515 Fe
0.836975 0.097028 0.308515 Fe
0.683129 0.327797 0.308515 Fe
0.529283 0.558566 0.308515 Fe
0.760052 0.712412 0.308515 Fe
0.606206 0.943182 0.308515 Fe
0.990822 0.866258 0.308515 Fe
0.375437 0.789335 0.308515 Fe
0.221591 0.020105 0.308515 Fe
0.029283 0.058566 0.286848 Fe
0.875437 0.289335 0.286848 Fe
0.721591 0.520105 0.286848 Fe
0.260052 0.212412 0.286848 Fe
0.106206 0.443182 0.286848 Fe
0.952360 0.673951 0.286848 Fe
0.644668 0.135489 0.286848 Fe
0.490822 0.366258 0.286848 Fe
0.336975 0.597028 0.286848 Fe
0.567745 0.750874 0.286848 Fe
0.413898 0.981643 0.286848 Fe
0.798514 0.904720 0.286848 Fe
0.183129 0.827797 0.286848 Fe
0.067745 0.250874 0.265180 Fe
0.913898 0.481643 0.265180 Fe
0.452360 0.173951 0.265180 Fe
0.298514 0.404720 0.265180 Fe
0.144668 0.635489 0.265180 Fe
0.836975 0.097028 0.265180 Fe
0.683129 0.327797 0.265180 Fe
0.529283 0.558566 0.265180 Fe
0.760052 0.712412 0.265180 Fe
0.606206 0.943182 0.265180 Fe
0.990822 0.866258 0.265180 Fe
0.375437 0.789335 0.265180 Fe
0.221591 0.020105 0.265180 Fe
0.029283 0.058566 0.243513 Fe
0.875437 0.289335 0.243513 Fe
0.721591 0.520105 0.243513 Fe
0.260052 0.212412 0.243513 Fe
0.106206 0.443182 0.243513 Fe
0.952360 0.673951 0.243513 Fe
0.644668 0.135489 0.243513 Fe
0.490822 0.366258 0.243513 Fe
0.336975 0.597028 0.243513 Fe
0.567745 0.750874 0.243513 Fe
0.413898 0.981643 0.243513 Fe
0.798514 0.904720 0.243513 Fe
0.183129 0.827797 0.243513 Fe
0.067745 0.250874 0.221845 Fe
0.913898 0.481643 0.221845 Fe
0.452360 0.173951 0.221845 Fe
0.298514 0.404720 0.221845 Fe
0.144668 0.635489 0.221845 Fe
0.836975 0.097028 0.221845 Fe
0.683129 0.327797 0.221845 Fe
0.529283 0.558566 0.221845 Fe
0.760052 0.712412 0.221845 Fe
0.606206 0.943182 0.221845 Fe
0.990822 0.866258 0.221845 Fe
0.375437 0.789335 0.221845 Fe
0.221591 0.020105 0.221845 Fe
0.029283 0.058566 0.200178 Fe
0.875437 0.289335 0.200178 Fe
0.721591 0.520105 0.200178 Fe
0.260052 0.212412 0.200178 Fe
0.106206 0.443182 0.200178 Fe
0.952360 0.673951 0.200178 Fe
0.644668 0.135489 0.200178 Fe
0.490822 0.366258 0.200178 Fe
0.336975 0.597028 0.200178 Fe
0.567745 0.750874 0.200178 Fe
0.413898 0.981643 0.200178 Fe
0.798514 0.904720 0.200178 Fe
0.183129 0.827797 0.200178 Fe
0.200000 0.100000 0.171449 Sb
0.600000 0.300000 0.171449 Sb
0.000000 0.500000 0.171449 Sb
0.800000 0.900000 0.171449 Sb
0.400000 0.700000 0.171449 Sb
0.500000 0.000000 0.122464 Sb
0.900000 0.200000 0.122464 Sb
0.300000 0.400000 0.122464 Sb
0.700000 0.600000 0.122464 Sb
0.100000 0.800000 0.122464 Sb
0.200000 0.100000 0.073478 Sb
0.600000 0.300000 0.073478 Sb
0.000000 0.500000 0.073478 Sb
0.800000 0.900000 0.073478 Sb
0.400000 0.700000 0.073478 Sb
0.944505 0.110990 0.030824 H
0.055495 0.889010 0.030823 H
0.655495 0.689010 0.030822 H
0.344505 0.310990 0.030822 H
0.144505 0.710990 0.030821 H
0.855495 0.289010 0.030821 H
0.255495 0.489010 0.030821 H
0.744505 0.510990 0.030821 H
0.455495 0.089010 0.030821 H
0.544505 0.910990 0.030821 H
