Ti12 Mn6 In12 Sb6
1.0
0.000000 4.581628 0.000000
4.581628 0.000000 -0.000000
-0.000000 0.000000 -57.638350
Ti Mn In Sb
12 6 12 6
direct
0.000000 -0.000000 0.400052 Ti
0.000000 0.500000 0.428159 Ti
0.500000 0.500000 0.343840 Ti
0.500000 -0.000000 0.371946 Ti
-0.000000 0.000000 0.512477 Ti
-0.000000 0.500000 0.540584 Ti
0.500000 0.500000 0.456265 Ti
0.500000 -0.000000 0.484371 Ti
-0.000000 0.000000 0.624903 Ti
-0.000000 0.500000 0.653009 Ti
0.500000 0.500000 0.568690 Ti
0.500000 0.000000 0.596796 Ti
0.500000 0.500000 0.400052 Mn
0.000000 -0.000000 0.343840 Mn
0.500000 0.500000 0.512477 Mn
0.000000 -0.000000 0.456265 Mn
0.500000 0.500000 0.624903 Mn
-0.000000 0.000000 0.568690 Mn
0.000000 -0.000000 0.056207 In
0.500000 0.500000 1.000000 In
0.000000 -0.000000 0.168622 In
0.500000 0.500000 0.112415 In
0.000000 -0.000000 0.281037 In
0.500000 0.500000 0.224829 In
0.000000 0.500000 0.371946 In
0.500000 -0.000000 0.428159 In
0.000000 0.500000 0.484371 In
0.500000 0.000000 0.540584 In
-0.000000 0.500000 0.596796 In
0.500000 0.000000 0.653009 In
0.000000 0.500000 0.084311 Sb
0.500000 -0.000000 0.028104 Sb
0.000000 0.500000 0.196726 Sb
0.500000 -0.000000 0.140518 Sb
0.000000 0.500000 0.309141 Sb
0.500000 -0.000000 0.252933 Sb
