Mn6 In12 Ni12 As6
1.0
0.000000 4.283936 0.000000
4.283936 0.000000 -0.000000
-0.000000 0.000000 -55.320925
Mn In Ni As
6 12 12 6
direct
0.000000 0.500000 0.364693 Mn
0.500000 0.000000 0.419449 Mn
0.000000 0.500000 0.474205 Mn
0.500000 0.000000 0.528961 Mn
1.000000 0.500000 0.583717 Mn
0.500000 0.000000 0.638473 Mn
-0.000000 0.000000 1.000000 In
0.500000 0.500000 0.054757 In
0.000000 -0.000000 0.109514 In
0.500000 0.500000 0.164271 In
0.000000 -0.000000 0.219027 In
0.500000 0.500000 0.273784 In
0.500000 0.000000 0.364693 In
0.000000 0.500000 0.419449 In
0.500000 0.000000 0.474205 In
1.000000 0.500000 0.528961 In
0.500000 0.000000 0.583717 In
1.000000 0.500000 0.638473 In
0.500000 0.500000 0.337315 Ni
0.000000 0.000000 0.337315 Ni
0.000000 0.000000 0.392071 Ni
0.500000 0.500000 0.392071 Ni
0.500000 0.500000 0.446827 Ni
0.000000 0.000000 0.446827 Ni
1.000000 0.000000 0.501583 Ni
0.500000 0.500000 0.501583 Ni
0.500000 0.500000 0.556339 Ni
1.000000 0.000000 0.556339 Ni
1.000000 0.000000 0.611095 Ni
0.500000 0.500000 0.611095 Ni
0.000000 0.500000 0.027378 As
0.500000 -0.000000 0.082135 As
0.000000 0.500000 0.136892 As
0.500000 -0.000000 0.191649 As
0.000000 0.500000 0.246406 As
0.500000 -0.000000 0.301163 As
