Al102 In36 As36
1.0
8.567871 -0.000000 -0.000000
-4.283936 22.259983 -0.000000
0.000000 0.000000 47.209979
Al In As
102 36 36
direct
0.000000 1.000000 0.213304 Al
0.882353 0.235294 0.213304 Al
0.764706 0.470588 0.213304 Al
0.647059 0.705882 0.213304 Al
0.529412 0.941176 0.213304 Al
0.411765 0.176471 0.213304 Al
0.294118 0.411765 0.213304 Al
0.176471 0.647059 0.213304 Al
0.058824 0.882353 0.213304 Al
0.941176 0.117647 0.213304 Al
0.823529 0.352941 0.213304 Al
0.705882 0.588235 0.213304 Al
0.588235 0.823529 0.213304 Al
0.470588 0.058824 0.213304 Al
0.352941 0.294118 0.213304 Al
0.235294 0.529412 0.213304 Al
0.117647 0.764706 0.213304 Al
0.147059 0.205882 0.243552 Al
0.029412 0.441176 0.243552 Al
0.911765 0.676471 0.243552 Al
0.794118 0.911765 0.243552 Al
0.676471 0.147059 0.243552 Al
0.558824 0.382353 0.243552 Al
0.441176 0.617647 0.243552 Al
0.323529 0.852941 0.243552 Al
0.205882 0.088235 0.243552 Al
0.088235 0.323529 0.243552 Al
0.970588 0.558824 0.243552 Al
0.852941 0.794118 0.243552 Al
0.735294 0.029412 0.243552 Al
0.617647 0.264706 0.243552 Al
0.500000 0.500000 0.243552 Al
0.382353 0.735294 0.243552 Al
0.264706 0.970588 0.243552 Al
0.941176 0.117647 0.273799 Al
0.823529 0.352941 0.273799 Al
0.705882 0.588235 0.273799 Al
0.588235 0.823529 0.273799 Al
0.470588 0.058824 0.273799 Al
0.352941 0.294118 0.273799 Al
0.235294 0.529412 0.273799 Al
0.117647 0.764706 0.273799 Al
1.000000 1.000000 0.273799 Al
0.882353 0.235294 0.273799 Al
0.764706 0.470588 0.273799 Al
0.647059 0.705882 0.273799 Al
0.529412 0.941176 0.273799 Al
0.411765 0.176471 0.273799 Al
0.294118 0.411765 0.273799 Al
0.176471 0.647059 0.273799 Al
0.058824 0.882353 0.273799 Al
0.205882 0.088235 0.304046 Al
0.088235 0.323529 0.304046 Al
0.970588 0.558824 0.304046 Al
0.852941 0.794118 0.304046 Al
0.735294 0.029412 0.304046 Al
0.617647 0.264706 0.304046 Al
0.500000 0.500000 0.304046 Al
0.382353 0.735294 0.304046 Al
0.264706 0.970588 0.304046 Al
0.147059 0.205882 0.304046 Al
0.029412 0.441176 0.304046 Al
0.911765 0.676471 0.304046 Al
0.794118 0.911765 0.304046 Al
0.676471 0.147059 0.304046 Al
0.558824 0.382353 0.304046 Al
0.441176 0.617647 0.304046 Al
0.323529 0.852941 0.304046 Al
0.000000 1.000000 0.334294 Al
0.882353 0.235294 0.334294 Al
0.764706 0.470588 0.334294 Al
0.647059 0.705882 0.334294 Al
0.529412 0.941176 0.334294 Al
0.411765 0.176471 0.334294 Al
0.294118 0.411765 0.334294 Al
0.176471 0.647059 0.334294 Al
0.058824 0.882353 0.334294 Al
0.941176 0.117647 0.334294 Al
0.823529 0.352941 0.334294 Al
0.705882 0.588235 0.334294 Al
0.588235 0.823529 0.334294 Al
0.470588 0.058824 0.334294 Al
0.352941 0.294118 0.334294 Al
0.235294 0.529412 0.334294 Al
0.117647 0.764706 0.334294 Al
0.147059 0.205882 0.364541 Al
0.029412 0.441176 0.364541 Al
0.911765 0.676471 0.364541 Al
0.794118 0.911765 0.364541 Al
0.676471 0.147059 0.364541 Al
0.558824 0.382353 0.364541 Al
0.441176 0.617647 0.364541 Al
0.323529 0.852941 0.364541 Al
0.205882 0.088235 0.364541 Al
0.088235 0.323529 0.364541 Al
0.970588 0.558824 0.364541 Al
0.852941 0.794118 0.364541 Al
0.735294 0.029412 0.364541 Al
0.617647 0.264706 0.364541 Al
0.500000 0.500000 0.364541 Al
0.382353 0.735294 0.364541 Al
0.264706 0.970588 0.364541 Al
0.666667 0.333333 0.018523 In
0.333333 0.666667 0.018523 In
1.000000 1.000000 0.018523 In
0.500000 0.500000 0.018523 In
0.166667 0.833333 0.018523 In
0.833333 0.166667 0.018523 In
0.333333 0.166667 0.018523 In
1.000000 0.500000 0.018523 In
0.666667 0.833333 0.018523 In
0.166667 0.333333 0.018523 In
0.833333 0.666667 0.018523 In
0.500000 1.000000 0.018523 In
0.111111 0.222222 0.092613 In
0.777778 0.555556 0.092613 In
0.444444 0.888889 0.092613 In
0.944444 0.388889 0.092613 In
0.611111 0.722222 0.092613 In
0.277778 0.055556 0.092613 In
0.444444 0.388889 0.092613 In
0.111111 0.722222 0.092613 In
0.777778 0.055556 0.092613 In
0.277778 0.555556 0.092613 In
0.944444 0.888889 0.092613 In
0.611111 0.222222 0.092613 In
0.222222 0.444444 0.166704 In
0.888889 0.777778 0.166704 In
0.555556 0.111111 0.166704 In
0.388889 0.277778 0.166704 In
0.055556 0.611111 0.166704 In
0.722222 0.944444 0.166704 In
0.888889 0.277778 0.166704 In
0.555556 0.611111 0.166704 In
0.222222 0.944444 0.166704 In
0.055556 0.111111 0.166704 In
0.722222 0.444444 0.166704 In
0.388889 0.777778 0.166704 In
0.222222 0.444444 0.000000 As
0.888889 0.777778 0.000000 As
0.555556 0.111111 0.000000 As
0.388889 0.277778 0.000000 As
0.055556 0.611111 0.000000 As
0.722222 0.944444 0.000000 As
0.888889 0.277778 0.000000 As
0.555556 0.611111 0.000000 As
0.222222 0.944444 0.000000 As
0.055556 0.111111 0.000000 As
0.722222 0.444444 0.000000 As
0.388889 0.777778 0.000000 As
0.000000 1.000000 0.074091 As
0.666667 0.333333 0.074091 As
0.333333 0.666667 0.074091 As
0.500000 0.500000 0.074091 As
0.166667 0.833333 0.074091 As
0.833333 0.166667 0.074091 As
0.333333 0.166667 0.074091 As
1.000000 0.500000 0.074091 As
0.666667 0.833333 0.074091 As
0.166667 0.333333 0.074091 As
0.833333 0.666667 0.074091 As
0.500000 1.000000 0.074091 As
0.111111 0.222222 0.148181 As
0.777778 0.555556 0.148181 As
0.444444 0.888889 0.148181 As
0.944444 0.388889 0.148181 As
0.611111 0.722222 0.148181 As
0.277778 0.055556 0.148181 As
0.444444 0.388889 0.148181 As
0.111111 0.722222 0.148181 As
0.777778 0.055556 0.148181 As
0.277778 0.555556 0.148181 As
0.944444 0.888889 0.148181 As
0.611111 0.222222 0.148181 As
