Al168 In60 As60
1.0
-1.619176 28.044942 0.000000
11.334229 -0.000000 -0.000000
-0.000000 -0.000000 -47.209979
Al In As
168 60 60
direct
0.000000 -0.000000 0.213304 Al
0.000000 0.500000 0.213304 Al
0.142857 0.500000 0.213304 Al
0.142857 -0.000000 0.213304 Al
0.285714 0.500000 0.213304 Al
0.285714 0.000000 0.213304 Al
0.428571 0.500000 0.213304 Al
0.428571 1.000000 0.213304 Al
0.571429 -0.000000 0.213304 Al
0.571429 0.500000 0.213304 Al
0.714286 -0.000000 0.213304 Al
0.714286 0.500000 0.213304 Al
0.857143 1.000000 0.213304 Al
0.857143 0.500000 0.213304 Al
0.071429 0.375000 0.243552 Al
0.071429 0.875000 0.243552 Al
0.214286 0.875000 0.243552 Al
0.214286 0.375000 0.243552 Al
0.357143 0.875000 0.243552 Al
0.357143 0.375000 0.243552 Al
0.500000 0.875000 0.243552 Al
0.500000 0.375000 0.243552 Al
0.642857 0.375000 0.243552 Al
0.642857 0.875000 0.243552 Al
0.785714 0.375000 0.243552 Al
0.785714 0.875000 0.243552 Al
0.928571 0.375000 0.243552 Al
0.928571 0.875000 0.243552 Al
0.071429 0.125000 0.243552 Al
0.071429 0.625000 0.243552 Al
0.214286 0.625000 0.243552 Al
0.214286 0.125000 0.243552 Al
0.357143 0.625000 0.243552 Al
0.357143 0.125000 0.243552 Al
0.500000 0.625000 0.243552 Al
0.500000 0.125000 0.243552 Al
0.642857 0.125000 0.243552 Al
0.642857 0.625000 0.243552 Al
0.785714 0.125000 0.243552 Al
0.785714 0.625000 0.243552 Al
0.928571 0.125000 0.243552 Al
0.928571 0.625000 0.243552 Al
0.000000 0.250000 0.213304 Al
0.000000 0.750000 0.213304 Al
0.142857 0.750000 0.213304 Al
0.142857 0.250000 0.213304 Al
0.285714 0.750000 0.213304 Al
0.285714 0.250000 0.213304 Al
0.428571 0.750000 0.213304 Al
0.428571 0.250000 0.213304 Al
0.571429 0.250000 0.213304 Al
0.571429 0.750000 0.213304 Al
0.714286 0.250000 0.213304 Al
0.714286 0.750000 0.213304 Al
0.857143 0.250000 0.213304 Al
0.857143 0.750000 0.213304 Al
0.000000 0.250000 0.273799 Al
0.000000 0.750000 0.273799 Al
0.142857 0.750000 0.273799 Al
0.142857 0.250000 0.273799 Al
0.285714 0.750000 0.273799 Al
0.285714 0.250000 0.273799 Al
0.428571 0.750000 0.273799 Al
0.428571 0.250000 0.273799 Al
0.571429 0.250000 0.273799 Al
0.571429 0.750000 0.273799 Al
0.714286 0.250000 0.273799 Al
0.714286 0.750000 0.273799 Al
0.857143 0.250000 0.273799 Al
0.857143 0.750000 0.273799 Al
0.071429 0.125000 0.304046 Al
0.071429 0.625000 0.304046 Al
0.214286 0.625000 0.304046 Al
0.214286 0.125000 0.304046 Al
0.357143 0.625000 0.304046 Al
0.357143 0.125000 0.304046 Al
0.500000 0.625000 0.304046 Al
0.500000 0.125000 0.304046 Al
0.642857 0.125000 0.304046 Al
0.642857 0.625000 0.304046 Al
0.785714 0.125000 0.304046 Al
0.785714 0.625000 0.304046 Al
0.928571 0.125000 0.304046 Al
0.928571 0.625000 0.304046 Al
0.071429 0.375000 0.304046 Al
0.071429 0.875000 0.304046 Al
0.214286 0.875000 0.304046 Al
0.214286 0.375000 0.304046 Al
0.357143 0.875000 0.304046 Al
0.357143 0.375000 0.304046 Al
0.500000 0.875000 0.304046 Al
0.500000 0.375000 0.304046 Al
0.642857 0.375000 0.304046 Al
0.642857 0.875000 0.304046 Al
0.785714 0.375000 0.304046 Al
0.785714 0.875000 0.304046 Al
0.928571 0.375000 0.304046 Al
0.928571 0.875000 0.304046 Al
1.000000 -0.000000 0.273799 Al
1.000000 0.500000 0.273799 Al
0.142857 0.500000 0.273799 Al
0.142857 -0.000000 0.273799 Al
0.285714 0.500000 0.273799 Al
0.285714 0.000000 0.273799 Al
0.428571 0.500000 0.273799 Al
0.428571 1.000000 0.273799 Al
0.571429 -0.000000 0.273799 Al
0.571429 0.500000 0.273799 Al
0.714286 -0.000000 0.273799 Al
0.714286 0.500000 0.273799 Al
0.857143 1.000000 0.273799 Al
0.857143 0.500000 0.273799 Al
1.000000 -0.000000 0.334294 Al
1.000000 0.500000 0.334294 Al
0.142857 0.500000 0.334294 Al
0.142857 -0.000000 0.334294 Al
0.285714 0.500000 0.334294 Al
0.285714 0.000000 0.334294 Al
0.428571 0.500000 0.334294 Al
0.428571 1.000000 0.334294 Al
0.571429 -0.000000 0.334294 Al
0.571429 0.500000 0.334294 Al
0.714286 -0.000000 0.334294 Al
0.714286 0.500000 0.334294 Al
0.857143 1.000000 0.334294 Al
0.857143 0.500000 0.334294 Al
0.071429 0.375000 0.364541 Al
0.071429 0.875000 0.364541 Al
0.214286 0.875000 0.364541 Al
0.214286 0.375000 0.364541 Al
0.357143 0.875000 0.364541 Al
0.357143 0.375000 0.364541 Al
0.500000 0.875000 0.364541 Al
0.500000 0.375000 0.364541 Al
0.642857 0.375000 0.364541 Al
0.642857 0.875000 0.364541 Al
0.785714 0.375000 0.364541 Al
0.785714 0.875000 0.364541 Al
0.928571 0.375000 0.364541 Al
0.928571 0.875000 0.364541 Al
0.071429 0.125000 0.364541 Al
0.071429 0.625000 0.364541 Al
0.214286 0.625000 0.364541 Al
0.214286 0.125000 0.364541 Al
0.357143 0.625000 0.364541 Al
0.357143 0.125000 0.364541 Al
0.500000 0.625000 0.364541 Al
0.500000 0.125000 0.364541 Al
0.642857 0.125000 0.364541 Al
0.642857 0.625000 0.364541 Al
0.785714 0.125000 0.364541 Al
0.785714 0.625000 0.364541 Al
0.928571 0.125000 0.364541 Al
0.928571 0.625000 0.364541 Al
1.000000 0.250000 0.334294 Al
1.000000 0.750000 0.334294 Al
0.142857 0.750000 0.334294 Al
0.142857 0.250000 0.334294 Al
0.285714 0.750000 0.334294 Al
0.285714 0.250000 0.334294 Al
0.428571 0.750000 0.334294 Al
0.428571 0.250000 0.334294 Al
0.571429 0.250000 0.334294 Al
0.571429 0.750000 0.334294 Al
0.714286 0.250000 0.334294 Al
0.714286 0.750000 0.334294 Al
0.857143 0.250000 0.334294 Al
0.857143 0.750000 0.334294 Al
0.200000 0.600000 0.018523 In
0.100000 0.300000 0.018523 In
1.000000 1.000000 0.018523 In
0.900000 0.700000 0.018523 In
0.800000 0.400000 0.018523 In
0.700000 0.100000 0.018523 In
0.600000 0.800000 0.018523 In
0.500000 0.500000 0.018523 In
0.400000 0.200000 0.018523 In
0.300000 0.900000 0.018523 In
0.150000 0.950000 0.018523 In
0.050000 0.650000 0.018523 In
0.950000 0.350000 0.018523 In
0.850000 0.050000 0.018523 In
0.750000 0.750000 0.018523 In
0.650000 0.450000 0.018523 In
0.550000 0.150000 0.018523 In
0.450000 0.850000 0.018523 In
0.350000 0.550000 0.018523 In
0.250000 0.250000 0.018523 In
0.033333 0.433333 0.092613 In
0.933333 0.133333 0.092613 In
0.833333 0.833333 0.092613 In
0.733333 0.533333 0.092613 In
0.633333 0.233333 0.092613 In
0.533333 0.933333 0.092613 In
0.433333 0.633333 0.092613 In
0.333333 0.333333 0.092613 In
0.233333 0.033333 0.092613 In
0.133333 0.733333 0.092613 In
0.983333 0.783333 0.092613 In
0.883333 0.483333 0.092613 In
0.783333 0.183333 0.092613 In
0.683333 0.883333 0.092613 In
0.583333 0.583333 0.092613 In
0.483333 0.283333 0.092613 In
0.383333 0.983333 0.092613 In
0.283333 0.683333 0.092613 In
0.183333 0.383333 0.092613 In
0.083333 0.083333 0.092613 In
0.066667 0.866667 0.166704 In
0.966667 0.566667 0.166704 In
0.866667 0.266667 0.166704 In
0.766667 0.966667 0.166704 In
0.666667 0.666667 0.166704 In
0.566667 0.366667 0.166704 In
0.466667 0.066667 0.166704 In
0.366667 0.766667 0.166704 In
0.266667 0.466667 0.166704 In
0.166667 0.166667 0.166704 In
0.116667 0.516667 0.166704 In
0.016667 0.216667 0.166704 In
0.916667 0.916667 0.166704 In
0.816667 0.616667 0.166704 In
0.716667 0.316667 0.166704 In
0.616667 0.016667 0.166704 In
0.516667 0.716667 0.166704 In
0.416667 0.416667 0.166704 In
0.316667 0.116667 0.166704 In
0.216667 0.816667 0.166704 In
0.066667 0.866667 1.000000 As
0.966667 0.566667 1.000000 As
0.866667 0.266667 1.000000 As
0.766667 0.966667 1.000000 As
0.666667 0.666667 1.000000 As
0.566667 0.366667 1.000000 As
0.466667 0.066667 1.000000 As
0.366667 0.766667 1.000000 As
0.266667 0.466667 1.000000 As
0.166667 0.166667 1.000000 As
0.116667 0.516667 1.000000 As
0.016667 0.216667 1.000000 As
0.916667 0.916667 1.000000 As
0.816667 0.616667 1.000000 As
0.716667 0.316667 1.000000 As
0.616667 0.016667 1.000000 As
0.516667 0.716667 1.000000 As
0.416667 0.416667 1.000000 As
0.316667 0.116667 1.000000 As
0.216667 0.816667 1.000000 As
0.000000 1.000000 0.074091 As
0.900000 0.700000 0.074091 As
0.800000 0.400000 0.074091 As
0.700000 0.100000 0.074091 As
0.600000 0.800000 0.074091 As
0.500000 0.500000 0.074091 As
0.400000 0.200000 0.074091 As
0.300000 0.900000 0.074091 As
0.200000 0.600000 0.074091 As
0.100000 0.300000 0.074091 As
0.150000 0.950000 0.074091 As
0.050000 0.650000 0.074091 As
0.950000 0.350000 0.074091 As
0.850000 0.050000 0.074091 As
0.750000 0.750000 0.074091 As
0.650000 0.450000 0.074091 As
0.550000 0.150000 0.074091 As
0.450000 0.850000 0.074091 As
0.350000 0.550000 0.074091 As
0.250000 0.250000 0.074091 As
0.033333 0.433333 0.148181 As
0.933333 0.133333 0.148181 As
0.833333 0.833333 0.148181 As
0.733333 0.533333 0.148181 As
0.633333 0.233333 0.148181 As
0.533333 0.933333 0.148181 As
0.433333 0.633333 0.148181 As
0.333333 0.333333 0.148181 As
0.233333 0.033333 0.148181 As
0.133333 0.733333 0.148181 As
0.983333 0.783333 0.148181 As
0.883333 0.483333 0.148181 As
0.783333 0.183333 0.148181 As
0.683333 0.883333 0.148181 As
0.583333 0.583333 0.148181 As
0.483333 0.283333 0.148181 As
0.383333 0.983333 0.148181 As
0.283333 0.683333 0.148181 As
0.183333 0.383333 0.148181 As
0.083333 0.083333 0.148181 As
