Al72 In27 As27
1.0
-2.428763 12.620224 0.000000
11.334229 -0.000000 -0.000000
-0.000000 -0.000000 -47.209979
Al In As
72 27 27
direct
0.000000 1.000000 0.213304 Al
0.000000 0.500000 0.213304 Al
0.666667 0.416667 0.213304 Al
0.666667 0.916667 0.213304 Al
0.333333 0.333333 0.213304 Al
0.333333 0.833333 0.213304 Al
0.000000 0.250000 0.213304 Al
0.000000 0.750000 0.213304 Al
0.666667 0.166667 0.213304 Al
0.666667 0.666667 0.213304 Al
0.333333 0.083333 0.213304 Al
0.333333 0.583333 0.213304 Al
0.833333 0.333333 0.243552 Al
0.833333 0.833333 0.243552 Al
0.500000 0.750000 0.243552 Al
0.500000 0.250000 0.243552 Al
0.166667 0.666667 0.243552 Al
0.166667 0.166667 0.243552 Al
0.833333 0.583333 0.243552 Al
0.833333 0.083333 0.243552 Al
0.500000 0.500000 0.243552 Al
0.500000 1.000000 0.243552 Al
0.166667 0.416667 0.243552 Al
0.166667 0.916667 0.243552 Al
0.000000 0.250000 0.273799 Al
0.000000 0.750000 0.273799 Al
0.666667 0.666667 0.273799 Al
0.666667 0.166667 0.273799 Al
0.333333 0.583333 0.273799 Al
0.333333 0.083333 0.273799 Al
0.000000 0.500000 0.273799 Al
0.000000 1.000000 0.273799 Al
0.666667 0.416667 0.273799 Al
0.666667 0.916667 0.273799 Al
0.333333 0.333333 0.273799 Al
0.333333 0.833333 0.273799 Al
0.833333 0.083333 0.304046 Al
0.833333 0.583333 0.304046 Al
0.500000 0.500000 0.304046 Al
0.500000 1.000000 0.304046 Al
0.166667 0.416667 0.304046 Al
0.166667 0.916667 0.304046 Al
0.833333 0.333333 0.304046 Al
0.833333 0.833333 0.304046 Al
0.500000 0.250000 0.304046 Al
0.500000 0.750000 0.304046 Al
0.166667 0.166667 0.304046 Al
0.166667 0.666667 0.304046 Al
0.000000 1.000000 0.334294 Al
0.000000 0.500000 0.334294 Al
0.666667 0.416667 0.334294 Al
0.666667 0.916667 0.334294 Al
0.333333 0.333333 0.334294 Al
0.333333 0.833333 0.334294 Al
0.000000 0.250000 0.334294 Al
0.000000 0.750000 0.334294 Al
0.666667 0.166667 0.334294 Al
0.666667 0.666667 0.334294 Al
0.333333 0.083333 0.334294 Al
0.333333 0.583333 0.334294 Al
0.833333 0.333333 0.364541 Al
0.833333 0.833333 0.364541 Al
0.500000 0.750000 0.364541 Al
0.500000 0.250000 0.364541 Al
0.166667 0.666667 0.364541 Al
0.166667 0.166667 0.364541 Al
0.833333 0.583333 0.364541 Al
0.833333 0.083333 0.364541 Al
0.500000 0.500000 0.364541 Al
0.500000 1.000000 0.364541 Al
0.166667 0.416667 0.364541 Al
0.166667 0.916667 0.364541 Al
0.444444 0.666667 0.018523 In
0.222222 0.333333 0.018523 In
0.000000 1.000000 0.018523 In
0.777778 0.666667 0.018523 In
0.555556 0.333333 0.018523 In
0.333333 1.000000 0.018523 In
0.111111 0.666667 0.018523 In
0.888889 0.333333 0.018523 In
0.666667 1.000000 0.018523 In
0.074074 0.444444 0.092613 In
0.851852 0.111111 0.092613 In
0.629630 0.777778 0.092613 In
0.407407 0.444444 0.092613 In
0.185185 0.111111 0.092613 In
0.962963 0.777778 0.092613 In
0.740741 0.444444 0.092613 In
0.518519 0.111111 0.092613 In
0.296296 0.777778 0.092613 In
0.148148 0.888889 0.166704 In
0.925926 0.555556 0.166704 In
0.703704 0.222222 0.166704 In
0.481481 0.888889 0.166704 In
0.259259 0.555556 0.166704 In
0.037037 0.222222 0.166704 In
0.814815 0.888889 0.166704 In
0.592593 0.555556 0.166704 In
0.370370 0.222222 0.166704 In
0.148148 0.888889 1.000000 As
0.925926 0.555556 1.000000 As
0.703704 0.222222 1.000000 As
0.481481 0.888889 1.000000 As
0.259259 0.555556 1.000000 As
0.037037 0.222222 1.000000 As
0.814815 0.888889 1.000000 As
0.592593 0.555556 1.000000 As
0.370370 0.222222 1.000000 As
0.000000 1.000000 0.074091 As
0.777778 0.666667 0.074091 As
0.555556 0.333333 0.074091 As
0.333333 1.000000 0.074091 As
0.111111 0.666667 0.074091 As
0.888889 0.333333 0.074091 As
0.666667 1.000000 0.074091 As
0.444444 0.666667 0.074091 As
0.222222 0.333333 0.074091 As
0.074074 0.444444 0.148181 As
0.851852 0.111111 0.148181 As
0.629630 0.777778 0.148181 As
0.407407 0.444444 0.148181 As
0.185185 0.111111 0.148181 As
0.962963 0.777778 0.148181 As
0.740741 0.444444 0.148181 As
0.518519 0.111111 0.148181 As
0.296296 0.777778 0.148181 As
