Al168 In60 As60
1.0
17.135743 -0.000000 -0.000000
-6.425904 18.549986 -0.000000
0.000000 0.000000 47.209979
Al In As
168 60 60
direct
1.000000 1.000000 0.213304 Al
0.285714 0.928571 0.213304 Al
0.571429 0.857143 0.213304 Al
0.857143 0.785714 0.213304 Al
0.142857 0.714286 0.213304 Al
0.428571 0.642857 0.213304 Al
0.714286 0.571429 0.213304 Al
1.000000 0.500000 0.213304 Al
0.285714 0.428571 0.213304 Al
0.571429 0.357143 0.213304 Al
0.857143 0.285714 0.213304 Al
0.142857 0.214286 0.213304 Al
0.428571 0.142857 0.213304 Al
0.714286 0.071429 0.213304 Al
0.285714 0.053571 0.243552 Al
0.571429 0.982143 0.243552 Al
0.857143 0.910714 0.243552 Al
0.142857 0.839286 0.243552 Al
0.428571 0.767857 0.243552 Al
0.714286 0.696429 0.243552 Al
0.000000 0.625000 0.243552 Al
0.285714 0.553571 0.243552 Al
0.571429 0.482143 0.243552 Al
0.857143 0.410714 0.243552 Al
0.142857 0.339286 0.243552 Al
0.428571 0.267857 0.243552 Al
0.714286 0.196429 0.243552 Al
1.000000 0.125000 0.243552 Al
0.142857 0.089286 0.243552 Al
0.428571 0.017857 0.243552 Al
0.714286 0.946429 0.243552 Al
1.000000 0.875000 0.243552 Al
0.285714 0.803571 0.243552 Al
0.571429 0.732143 0.243552 Al
0.857143 0.660714 0.243552 Al
0.142857 0.589286 0.243552 Al
0.428571 0.517857 0.243552 Al
0.714286 0.446429 0.243552 Al
1.000000 0.375000 0.243552 Al
0.285714 0.303571 0.243552 Al
0.571429 0.232143 0.243552 Al
0.857143 0.160714 0.243552 Al
0.142857 0.964286 0.213304 Al
0.428571 0.892857 0.213304 Al
0.714286 0.821429 0.213304 Al
0.000000 0.750000 0.213304 Al
0.285714 0.678571 0.213304 Al
0.571429 0.607143 0.213304 Al
0.857143 0.535714 0.213304 Al
0.142857 0.464286 0.213304 Al
0.428571 0.392857 0.213304 Al
0.714286 0.321429 0.213304 Al
1.000000 0.250000 0.213304 Al
0.285714 0.178571 0.213304 Al
0.571429 0.107143 0.213304 Al
0.857143 0.035714 0.213304 Al
0.142857 0.964286 0.273799 Al
0.428571 0.892857 0.273799 Al
0.714286 0.821429 0.273799 Al
0.000000 0.750000 0.273799 Al
0.285714 0.678571 0.273799 Al
0.571429 0.607143 0.273799 Al
0.857143 0.535714 0.273799 Al
0.142857 0.464286 0.273799 Al
0.428571 0.392857 0.273799 Al
0.714286 0.321429 0.273799 Al
1.000000 0.250000 0.273799 Al
0.285714 0.178571 0.273799 Al
0.571429 0.107143 0.273799 Al
0.857143 0.035714 0.273799 Al
0.142857 0.089286 0.304046 Al
0.428571 0.017857 0.304046 Al
0.714286 0.946429 0.304046 Al
1.000000 0.875000 0.304046 Al
0.285714 0.803571 0.304046 Al
0.571429 0.732143 0.304046 Al
0.857143 0.660714 0.304046 Al
0.142857 0.589286 0.304046 Al
0.428571 0.517857 0.304046 Al
0.714286 0.446429 0.304046 Al
1.000000 0.375000 0.304046 Al
0.285714 0.303571 0.304046 Al
0.571429 0.232143 0.304046 Al
0.857143 0.160714 0.304046 Al
0.285714 0.053571 0.304046 Al
0.571429 0.982143 0.304046 Al
0.857143 0.910714 0.304046 Al
0.142857 0.839286 0.304046 Al
0.428571 0.767857 0.304046 Al
0.714286 0.696429 0.304046 Al
1.000000 0.625000 0.304046 Al
0.285714 0.553571 0.304046 Al
0.571429 0.482143 0.304046 Al
0.857143 0.410714 0.304046 Al
0.142857 0.339286 0.304046 Al
0.428571 0.267857 0.304046 Al
0.714286 0.196429 0.304046 Al
1.000000 0.125000 0.304046 Al
1.000000 1.000000 0.273799 Al
0.285714 0.928571 0.273799 Al
0.571429 0.857143 0.273799 Al
0.857143 0.785714 0.273799 Al
0.142857 0.714286 0.273799 Al
0.428571 0.642857 0.273799 Al
0.714286 0.571429 0.273799 Al
1.000000 0.500000 0.273799 Al
0.285714 0.428571 0.273799 Al
0.571429 0.357143 0.273799 Al
0.857143 0.285714 0.273799 Al
0.142857 0.214286 0.273799 Al
0.428571 0.142857 0.273799 Al
0.714286 0.071429 0.273799 Al
1.000000 1.000000 0.334294 Al
0.285714 0.928571 0.334294 Al
0.571429 0.857143 0.334294 Al
0.857143 0.785714 0.334294 Al
0.142857 0.714286 0.334294 Al
0.428571 0.642857 0.334294 Al
0.714286 0.571429 0.334294 Al
1.000000 0.500000 0.334294 Al
0.285714 0.428571 0.334294 Al
0.571429 0.357143 0.334294 Al
0.857143 0.285714 0.334294 Al
0.142857 0.214286 0.334294 Al
0.428571 0.142857 0.334294 Al
0.714286 0.071429 0.334294 Al
0.285714 0.053571 0.364541 Al
0.571429 0.982143 0.364541 Al
0.857143 0.910714 0.364541 Al
0.142857 0.839286 0.364541 Al
0.428571 0.767857 0.364541 Al
0.714286 0.696429 0.364541 Al
0.000000 0.625000 0.364541 Al
0.285714 0.553571 0.364541 Al
0.571429 0.482143 0.364541 Al
0.857143 0.410714 0.364541 Al
0.142857 0.339286 0.364541 Al
0.428571 0.267857 0.364541 Al
0.714286 0.196429 0.364541 Al
1.000000 0.125000 0.364541 Al
0.142857 0.089286 0.364541 Al
0.428571 0.017857 0.364541 Al
0.714286 0.946429 0.364541 Al
1.000000 0.875000 0.364541 Al
0.285714 0.803571 0.364541 Al
0.571429 0.732143 0.364541 Al
0.857143 0.660714 0.364541 Al
0.142857 0.589286 0.364541 Al
0.428571 0.517857 0.364541 Al
0.714286 0.446429 0.364541 Al
1.000000 0.375000 0.364541 Al
0.285714 0.303571 0.364541 Al
0.571429 0.232143 0.364541 Al
0.857143 0.160714 0.364541 Al
0.142857 0.964286 0.334294 Al
0.428571 0.892857 0.334294 Al
0.714286 0.821429 0.334294 Al
0.000000 0.750000 0.334294 Al
0.285714 0.678571 0.334294 Al
0.571429 0.607143 0.334294 Al
0.857143 0.535714 0.334294 Al
0.142857 0.464286 0.334294 Al
0.428571 0.392857 0.334294 Al
0.714286 0.321429 0.334294 Al
1.000000 0.250000 0.334294 Al
0.285714 0.178571 0.334294 Al
0.571429 0.107143 0.334294 Al
0.857143 0.035714 0.334294 Al
0.600000 0.600000 0.018523 In
0.700000 0.200000 0.018523 In
0.800000 0.800000 0.018523 In
0.900000 0.400000 0.018523 In
0.000000 0.000000 0.018523 In
0.100000 0.600000 0.018523 In
0.200000 0.200000 0.018523 In
0.300000 0.800000 0.018523 In
0.400000 0.400000 0.018523 In
0.500000 1.000000 0.018523 In
0.650000 0.400000 0.018523 In
0.750000 0.000000 0.018523 In
0.850000 0.600000 0.018523 In
0.950000 0.200000 0.018523 In
0.050000 0.800000 0.018523 In
0.150000 0.400000 0.018523 In
0.250000 1.000000 0.018523 In
0.350000 0.600000 0.018523 In
0.450000 0.200000 0.018523 In
0.550000 0.800000 0.018523 In
0.900000 0.733333 0.092613 In
0.000000 0.333333 0.092613 In
0.100000 0.933333 0.092613 In
0.200000 0.533333 0.092613 In
0.300000 0.133333 0.092613 In
0.400000 0.733333 0.092613 In
0.500000 0.333333 0.092613 In
0.600000 0.933333 0.092613 In
0.700000 0.533333 0.092613 In
0.800000 0.133333 0.092613 In
0.950000 0.533333 0.092613 In
0.050000 0.133333 0.092613 In
0.150000 0.733333 0.092613 In
0.250000 0.333333 0.092613 In
0.350000 0.933333 0.092613 In
0.450000 0.533333 0.092613 In
0.550000 0.133333 0.092613 In
0.650000 0.733333 0.092613 In
0.750000 0.333333 0.092613 In
0.850000 0.933333 0.092613 In
0.800000 0.466667 0.166704 In
0.900000 0.066667 0.166704 In
1.000000 0.666667 0.166704 In
0.100000 0.266667 0.166704 In
0.200000 0.866667 0.166704 In
0.300000 0.466667 0.166704 In
0.400000 0.066667 0.166704 In
0.500000 0.666667 0.166704 In
0.600000 0.266667 0.166704 In
0.700000 0.866667 0.166704 In
0.750000 0.666667 0.166704 In
0.850000 0.266667 0.166704 In
0.950000 0.866667 0.166704 In
0.050000 0.466667 0.166704 In
0.150000 0.066667 0.166704 In
0.250000 0.666667 0.166704 In
0.350000 0.266667 0.166704 In
0.450000 0.866667 0.166704 In
0.550000 0.466667 0.166704 In
0.650000 0.066667 0.166704 In
0.800000 0.466667 0.000000 As
0.900000 0.066667 0.000000 As
1.000000 0.666667 0.000000 As
0.100000 0.266667 0.000000 As
0.200000 0.866667 0.000000 As
0.300000 0.466667 0.000000 As
0.400000 0.066667 0.000000 As
0.500000 0.666667 0.000000 As
0.600000 0.266667 0.000000 As
0.700000 0.866667 0.000000 As
0.750000 0.666667 0.000000 As
0.850000 0.266667 0.000000 As
0.950000 0.866667 0.000000 As
0.050000 0.466667 0.000000 As
0.150000 0.066667 0.000000 As
0.250000 0.666667 0.000000 As
0.350000 0.266667 0.000000 As
0.450000 0.866667 0.000000 As
0.550000 0.466667 0.000000 As
0.650000 0.066667 0.000000 As
0.000000 1.000000 0.074091 As
0.100000 0.600000 0.074091 As
0.200000 0.200000 0.074091 As
0.300000 0.800000 0.074091 As
0.400000 0.400000 0.074091 As
0.500000 0.000000 0.074091 As
0.600000 0.600000 0.074091 As
0.700000 0.200000 0.074091 As
0.800000 0.800000 0.074091 As
0.900000 0.400000 0.074091 As
0.650000 0.400000 0.074091 As
0.750000 0.000000 0.074091 As
0.850000 0.600000 0.074091 As
0.950000 0.200000 0.074091 As
0.050000 0.800000 0.074091 As
0.150000 0.400000 0.074091 As
0.250000 1.000000 0.074091 As
0.350000 0.600000 0.074091 As
0.450000 0.200000 0.074091 As
0.550000 0.800000 0.074091 As
0.900000 0.733333 0.148181 As
0.000000 0.333333 0.148181 As
0.100000 0.933333 0.148181 As
0.200000 0.533333 0.148181 As
0.300000 0.133333 0.148181 As
0.400000 0.733333 0.148181 As
0.500000 0.333333 0.148181 As
0.600000 0.933333 0.148181 As
0.700000 0.533333 0.148181 As
0.800000 0.133333 0.148181 As
0.950000 0.533333 0.148181 As
0.050000 0.133333 0.148181 As
0.150000 0.733333 0.148181 As
0.250000 0.333333 0.148181 As
0.350000 0.933333 0.148181 As
0.450000 0.533333 0.148181 As
0.550000 0.133333 0.148181 As
0.650000 0.733333 0.148181 As
0.750000 0.333333 0.148181 As
0.850000 0.933333 0.148181 As
