Mn210 Ga200 As410
1.0
-3.263905 23.079296 0.000000
19.583432 -0.000000 -0.000000
-0.000000 -0.000000 -75.230171
Mn Ga As
210 200 410
direct
0.974601 0.898405 0.282635 Mn
0.212697 0.850786 0.282635 Mn
0.450792 0.803167 0.282635 Mn
0.688887 0.755548 0.282635 Mn
0.926982 0.707929 0.282635 Mn
0.165078 0.660310 0.282635 Mn
0.403173 0.612691 0.282635 Mn
0.641268 0.565072 0.282635 Mn
0.879363 0.517453 0.282635 Mn
0.117458 0.469834 0.282635 Mn
0.355554 0.422215 0.282635 Mn
0.593649 0.374596 0.282635 Mn
0.831744 0.326977 0.282635 Mn
0.069839 0.279358 0.282635 Mn
0.307935 0.231739 0.282635 Mn
0.546030 0.184120 0.282635 Mn
0.784125 0.136500 0.282635 Mn
0.022220 0.088881 0.282635 Mn
0.260316 0.041262 0.282635 Mn
0.498411 0.993643 0.282635 Mn
0.736506 0.946024 0.282635 Mn
0.093649 0.874596 0.282635 Mn
0.331744 0.826977 0.282635 Mn
0.569839 0.779358 0.282635 Mn
0.807935 0.731739 0.282635 Mn
0.046030 0.684120 0.282635 Mn
0.284125 0.636500 0.282635 Mn
0.522220 0.588881 0.282635 Mn
0.760316 0.541262 0.282635 Mn
0.998411 0.493643 0.282635 Mn
0.236506 0.446024 0.282635 Mn
0.474601 0.398405 0.282635 Mn
0.712697 0.350786 0.282635 Mn
0.950792 0.303167 0.282635 Mn
0.188887 0.255548 0.282635 Mn
0.426982 0.207929 0.282635 Mn
0.665077 0.160310 0.282635 Mn
0.903173 0.112691 0.282635 Mn
0.141268 0.065072 0.282635 Mn
0.379363 0.017453 0.282635 Mn
0.617458 0.969834 0.282635 Mn
0.855554 0.922215 0.282635 Mn
0.998411 0.993643 0.325481 Mn
0.236506 0.946024 0.325481 Mn
0.474601 0.898405 0.325481 Mn
0.712697 0.850786 0.325481 Mn
0.950792 0.803167 0.325481 Mn
0.188887 0.755548 0.325481 Mn
0.426982 0.707929 0.325481 Mn
0.665078 0.660310 0.325481 Mn
0.903173 0.612691 0.325481 Mn
0.141268 0.565072 0.325481 Mn
0.379363 0.517453 0.325481 Mn
0.617458 0.469834 0.325481 Mn
0.855554 0.422215 0.325481 Mn
0.093649 0.374596 0.325481 Mn
0.331744 0.326977 0.325481 Mn
0.569839 0.279358 0.325481 Mn
0.807935 0.231739 0.325481 Mn
0.046030 0.184120 0.325481 Mn
0.284125 0.136500 0.325481 Mn
0.522220 0.088881 0.325481 Mn
0.760316 0.041262 0.325481 Mn
0.117458 0.969834 0.325481 Mn
0.355554 0.922215 0.325481 Mn
0.593649 0.874596 0.325481 Mn
0.831744 0.826977 0.325481 Mn
0.069839 0.779358 0.325481 Mn
0.307935 0.731739 0.325481 Mn
0.546030 0.684120 0.325481 Mn
0.784125 0.636500 0.325481 Mn
0.022220 0.588881 0.325481 Mn
0.260316 0.541262 0.325481 Mn
0.498411 0.493643 0.325481 Mn
0.736506 0.446024 0.325481 Mn
0.974601 0.398405 0.325481 Mn
0.212697 0.350786 0.325481 Mn
0.450792 0.303167 0.325481 Mn
0.688887 0.255548 0.325481 Mn
0.926982 0.207929 0.325481 Mn
0.165077 0.160310 0.325481 Mn
0.403173 0.112691 0.325481 Mn
0.641268 0.065072 0.325481 Mn
0.879363 0.017453 0.325481 Mn
0.974601 0.898405 0.368328 Mn
0.212697 0.850786 0.368328 Mn
0.450792 0.803167 0.368328 Mn
0.688887 0.755548 0.368328 Mn
0.926982 0.707929 0.368328 Mn
0.165078 0.660310 0.368328 Mn
0.403173 0.612691 0.368328 Mn
0.641268 0.565072 0.368328 Mn
0.879363 0.517453 0.368328 Mn
0.117458 0.469834 0.368328 Mn
0.355554 0.422215 0.368328 Mn
0.593649 0.374596 0.368328 Mn
0.831744 0.326977 0.368328 Mn
0.069839 0.279358 0.368328 Mn
0.307935 0.231739 0.368328 Mn
0.546030 0.184120 0.368328 Mn
0.784125 0.136500 0.368328 Mn
0.022220 0.088881 0.368328 Mn
0.260316 0.041262 0.368328 Mn
0.498411 0.993643 0.368328 Mn
0.736506 0.946024 0.368328 Mn
0.093649 0.874596 0.368328 Mn
0.331744 0.826977 0.368328 Mn
0.569839 0.779358 0.368328 Mn
0.807935 0.731739 0.368328 Mn
0.046030 0.684120 0.368328 Mn
0.284125 0.636500 0.368328 Mn
0.522220 0.588881 0.368328 Mn
0.760316 0.541262 0.368328 Mn
0.998411 0.493643 0.368328 Mn
0.236506 0.446024 0.368328 Mn
0.474601 0.398405 0.368328 Mn
0.712697 0.350786 0.368328 Mn
0.950792 0.303167 0.368328 Mn
0.188887 0.255548 0.368328 Mn
0.426982 0.207929 0.368328 Mn
0.665077 0.160310 0.368328 Mn
0.903173 0.112691 0.368328 Mn
0.141268 0.065072 0.368328 Mn
0.379363 0.017453 0.368328 Mn
0.617458 0.969834 0.368328 Mn
0.855554 0.922215 0.368328 Mn
0.998411 0.993643 0.411174 Mn
0.236506 0.946024 0.411174 Mn
0.474601 0.898405 0.411174 Mn
0.712697 0.850786 0.411174 Mn
0.950792 0.803167 0.411174 Mn
0.188887 0.755548 0.411174 Mn
0.426982 0.707929 0.411174 Mn
0.665078 0.660310 0.411174 Mn
0.903173 0.612691 0.411174 Mn
0.141268 0.565072 0.411174 Mn
0.379363 0.517453 0.411174 Mn
0.617458 0.469834 0.411174 Mn
0.855554 0.422215 0.411174 Mn
0.093649 0.374596 0.411174 Mn
0.331744 0.326977 0.411174 Mn
0.569839 0.279358 0.411174 Mn
0.807935 0.231739 0.411174 Mn
0.046030 0.184120 0.411174 Mn
0.284125 0.136500 0.411174 Mn
0.522220 0.088881 0.411174 Mn
0.760316 0.041262 0.411174 Mn
0.117458 0.969834 0.411174 Mn
0.355554 0.922215 0.411174 Mn
0.593649 0.874596 0.411174 Mn
0.831744 0.826977 0.411174 Mn
0.069839 0.779358 0.411174 Mn
0.307935 0.731739 0.411174 Mn
0.546030 0.684120 0.411174 Mn
0.784125 0.636500 0.411174 Mn
0.022220 0.588881 0.411174 Mn
0.260316 0.541262 0.411174 Mn
0.498411 0.493643 0.411174 Mn
0.736506 0.446024 0.411174 Mn
0.974601 0.398405 0.411174 Mn
0.212697 0.350786 0.411174 Mn
0.450792 0.303167 0.411174 Mn
0.688887 0.255548 0.411174 Mn
0.926982 0.207929 0.411174 Mn
0.165077 0.160310 0.411174 Mn
0.403173 0.112691 0.411174 Mn
0.641268 0.065072 0.411174 Mn
0.879363 0.017453 0.411174 Mn
0.974601 0.898405 0.454021 Mn
0.212697 0.850786 0.454021 Mn
0.450792 0.803167 0.454021 Mn
0.688887 0.755548 0.454021 Mn
0.926982 0.707929 0.454021 Mn
0.165077 0.660310 0.454021 Mn
0.403173 0.612691 0.454021 Mn
0.641268 0.565072 0.454021 Mn
0.879363 0.517453 0.454021 Mn
0.117458 0.469834 0.454021 Mn
0.355554 0.422215 0.454021 Mn
0.593649 0.374596 0.454021 Mn
0.831744 0.326977 0.454021 Mn
0.069839 0.279358 0.454021 Mn
0.307935 0.231739 0.454021 Mn
0.546030 0.184120 0.454021 Mn
0.784125 0.136500 0.454021 Mn
0.022220 0.088881 0.454021 Mn
0.260316 0.041262 0.454021 Mn
0.498411 0.993643 0.454021 Mn
0.736506 0.946024 0.454021 Mn
0.093649 0.874596 0.454021 Mn
0.331744 0.826977 0.454021 Mn
0.569839 0.779358 0.454021 Mn
0.807935 0.731739 0.454021 Mn
0.046030 0.684120 0.454021 Mn
0.284125 0.636500 0.454021 Mn
0.522220 0.588881 0.454021 Mn
0.760316 0.541262 0.454021 Mn
0.998411 0.493643 0.454021 Mn
0.236506 0.446024 0.454021 Mn
0.474601 0.398405 0.454021 Mn
0.712697 0.350786 0.454021 Mn
0.950792 0.303167 0.454021 Mn
0.188887 0.255548 0.454021 Mn
0.426982 0.207929 0.454021 Mn
0.665077 0.160310 0.454021 Mn
0.903173 0.112691 0.454021 Mn
0.141268 0.065072 0.454021 Mn
0.379363 0.017453 0.454021 Mn
0.617458 0.969834 0.454021 Mn
0.855554 0.922215 0.454021 Mn
0.300000 0.925000 0.026568 Ga
0.500000 0.625000 0.026568 Ga
0.700000 0.325000 0.026568 Ga
0.900000 0.025000 0.026568 Ga
0.100000 0.725000 0.026568 Ga
0.300000 0.425000 0.026568 Ga
0.500000 0.125000 0.026568 Ga
0.700000 0.825000 0.026568 Ga
0.900000 0.525000 0.026568 Ga
0.100000 0.225000 0.026568 Ga
0.200000 0.075000 0.026568 Ga
0.400000 0.775000 0.026568 Ga
0.600000 0.475000 0.026568 Ga
0.800000 0.175000 0.026568 Ga
0.000000 0.875000 0.026568 Ga
0.200000 0.575000 0.026568 Ga
0.400000 0.275000 0.026568 Ga
0.600000 0.975000 0.026568 Ga
0.800000 0.675000 0.026568 Ga
0.000000 0.375000 0.026568 Ga
0.150000 0.900000 1.000000 Ga
0.350000 0.600000 1.000000 Ga
0.550000 0.300000 1.000000 Ga
0.750000 0.000000 1.000000 Ga
0.950000 0.700000 1.000000 Ga
0.150000 0.400000 1.000000 Ga
0.350000 0.100000 1.000000 Ga
0.550000 0.800000 1.000000 Ga
0.750000 0.500000 1.000000 Ga
0.950000 0.200000 1.000000 Ga
0.250000 0.750000 1.000000 Ga
0.450000 0.450000 1.000000 Ga
0.650000 0.150000 1.000000 Ga
0.850000 0.850000 1.000000 Ga
0.050000 0.550000 1.000000 Ga
0.250000 0.250000 1.000000 Ga
0.450000 0.950000 1.000000 Ga
0.650000 0.650000 1.000000 Ga
0.850000 0.350000 1.000000 Ga
0.050000 0.050000 1.000000 Ga
0.200000 0.075000 0.079704 Ga
0.400000 0.775000 0.079704 Ga
0.600000 0.475000 0.079704 Ga
0.800000 0.175000 0.079704 Ga
0.000000 0.875000 0.079704 Ga
0.200000 0.575000 0.079704 Ga
0.400000 0.275000 0.079704 Ga
0.600000 0.975000 0.079704 Ga
0.800000 0.675000 0.079704 Ga
0.000000 0.375000 0.079704 Ga
0.300000 0.925000 0.079704 Ga
0.500000 0.625000 0.079704 Ga
0.700000 0.325000 0.079704 Ga
0.900000 0.025000 0.079704 Ga
0.100000 0.725000 0.079704 Ga
0.300000 0.425000 0.079704 Ga
0.500000 0.125000 0.079704 Ga
0.700000 0.825000 0.079704 Ga
0.900000 0.525000 0.079704 Ga
0.100000 0.225000 0.079704 Ga
0.250000 0.750000 0.053136 Ga
0.450000 0.450000 0.053136 Ga
0.650000 0.150000 0.053136 Ga
0.850000 0.850000 0.053136 Ga
0.050000 0.550000 0.053136 Ga
0.250000 0.250000 0.053136 Ga
0.450000 0.950000 0.053136 Ga
0.650000 0.650000 0.053136 Ga
0.850000 0.350000 0.053136 Ga
0.050000 0.050000 0.053136 Ga
0.150000 0.900000 0.053136 Ga
0.350000 0.600000 0.053136 Ga
0.550000 0.300000 0.053136 Ga
0.750000 -0.000000 0.053136 Ga
0.950000 0.700000 0.053136 Ga
0.150000 0.400000 0.053136 Ga
0.350000 0.100000 0.053136 Ga
0.550000 0.800000 0.053136 Ga
0.750000 0.500000 0.053136 Ga
0.950000 0.200000 0.053136 Ga
0.300000 0.925000 0.132841 Ga
0.500000 0.625000 0.132841 Ga
0.700000 0.325000 0.132841 Ga
0.900000 0.025000 0.132841 Ga
0.100000 0.725000 0.132841 Ga
0.300000 0.425000 0.132841 Ga
0.500000 0.125000 0.132841 Ga
0.700000 0.825000 0.132841 Ga
0.900000 0.525000 0.132841 Ga
0.100000 0.225000 0.132841 Ga
0.200000 0.075000 0.132841 Ga
0.400000 0.775000 0.132841 Ga
0.600000 0.475000 0.132841 Ga
0.800000 0.175000 0.132841 Ga
0.000000 0.875000 0.132841 Ga
0.200000 0.575000 0.132841 Ga
0.400000 0.275000 0.132841 Ga
0.600000 0.975000 0.132841 Ga
0.800000 0.675000 0.132841 Ga
0.000000 0.375000 0.132841 Ga
0.150000 0.900000 0.106273 Ga
0.350000 0.600000 0.106273 Ga
0.550000 0.300000 0.106273 Ga
0.750000 1.000000 0.106273 Ga
0.950000 0.700000 0.106273 Ga
0.150000 0.400000 0.106273 Ga
0.350000 0.100000 0.106273 Ga
0.550000 0.800000 0.106273 Ga
0.750000 0.500000 0.106273 Ga
0.950000 0.200000 0.106273 Ga
0.050000 0.050000 0.106273 Ga
0.250000 0.750000 0.106273 Ga
0.450000 0.450000 0.106273 Ga
0.650000 0.150000 0.106273 Ga
0.850000 0.850000 0.106273 Ga
0.050000 0.550000 0.106273 Ga
0.250000 0.250000 0.106273 Ga
0.450000 0.950000 0.106273 Ga
0.650000 0.650000 0.106273 Ga
0.850000 0.350000 0.106273 Ga
0.200000 0.075000 0.185977 Ga
0.400000 0.775000 0.185977 Ga
0.600000 0.475000 0.185977 Ga
0.800000 0.175000 0.185977 Ga
0.000000 0.875000 0.185977 Ga
0.200000 0.575000 0.185977 Ga
0.400000 0.275000 0.185977 Ga
0.600000 0.975000 0.185977 Ga
0.800000 0.675000 0.185977 Ga
0.000000 0.375000 0.185977 Ga
0.300000 0.925000 0.185977 Ga
0.500000 0.625000 0.185977 Ga
0.700000 0.325000 0.185977 Ga
0.900000 0.025000 0.185977 Ga
0.100000 0.725000 0.185977 Ga
0.300000 0.425000 0.185977 Ga
0.500000 0.125000 0.185977 Ga
0.700000 0.825000 0.185977 Ga
0.900000 0.525000 0.185977 Ga
0.100000 0.225000 0.185977 Ga
0.250000 0.750000 0.159409 Ga
0.450000 0.450000 0.159409 Ga
0.650000 0.150000 0.159409 Ga
0.850000 0.850000 0.159409 Ga
0.050000 0.550000 0.159409 Ga
0.250000 0.250000 0.159409 Ga
0.450000 0.950000 0.159409 Ga
0.650000 0.650000 0.159409 Ga
0.850000 0.350000 0.159409 Ga
0.050000 0.050000 0.159409 Ga
0.150000 0.900000 0.159409 Ga
0.350000 0.600000 0.159409 Ga
0.550000 0.300000 0.159409 Ga
0.750000 0.000000 0.159409 Ga
0.950000 0.700000 0.159409 Ga
0.150000 0.400000 0.159409 Ga
0.350000 0.100000 0.159409 Ga
0.550000 0.800000 0.159409 Ga
0.750000 0.500000 0.159409 Ga
0.950000 0.200000 0.159409 Ga
0.300000 0.925000 0.239113 Ga
0.500000 0.625000 0.239113 Ga
0.700000 0.325000 0.239113 Ga
0.900000 0.025000 0.239113 Ga
0.100000 0.725000 0.239113 Ga
0.300000 0.425000 0.239113 Ga
0.500000 0.125000 0.239113 Ga
0.700000 0.825000 0.239113 Ga
0.900000 0.525000 0.239113 Ga
0.100000 0.225000 0.239113 Ga
0.200000 0.075000 0.239113 Ga
0.400000 0.775000 0.239113 Ga
0.600000 0.475000 0.239113 Ga
0.800000 0.175000 0.239113 Ga
0.000000 0.875000 0.239113 Ga
0.200000 0.575000 0.239113 Ga
0.400000 0.275000 0.239113 Ga
0.600000 0.975000 0.239113 Ga
0.800000 0.675000 0.239113 Ga
0.000000 0.375000 0.239113 Ga
0.150000 0.900000 0.212545 Ga
0.350000 0.600000 0.212545 Ga
0.550000 0.300000 0.212545 Ga
0.750000 0.000000 0.212545 Ga
0.950000 0.700000 0.212545 Ga
0.150000 0.400000 0.212545 Ga
0.350000 0.100000 0.212545 Ga
0.550000 0.800000 0.212545 Ga
0.750000 0.500000 0.212545 Ga
0.950000 0.200000 0.212545 Ga
0.050000 0.050000 0.212545 Ga
0.250000 0.750000 0.212545 Ga
0.450000 0.450000 0.212545 Ga
0.650000 0.150000 0.212545 Ga
0.850000 0.850000 0.212545 Ga
0.050000 0.550000 0.212545 Ga
0.250000 0.250000 0.212545 Ga
0.450000 0.950000 0.212545 Ga
0.650000 0.650000 0.212545 Ga
0.850000 0.350000 0.212545 Ga
0.000000 1.000000 0.026568 As
0.200000 0.700000 0.026568 As
0.400000 0.400000 0.026568 As
0.600000 0.100000 0.026568 As
0.800000 0.800000 0.026568 As
0.000000 0.500000 0.026568 As
0.200000 0.200000 0.026568 As
0.400000 0.900000 0.026568 As
0.600000 0.600000 0.026568 As
0.800000 0.300000 0.026568 As
0.100000 0.850000 0.026568 As
0.300000 0.550000 0.026568 As
0.500000 0.250000 0.026568 As
0.700000 0.950000 0.026568 As
0.900000 0.650000 0.026568 As
0.100000 0.350000 0.026568 As
0.300000 0.050000 0.026568 As
0.500000 0.750000 0.026568 As
0.700000 0.450000 0.026568 As
0.900000 0.150000 0.026568 As
0.250000 0.875000 1.000000 As
0.450000 0.575000 1.000000 As
0.650000 0.275000 1.000000 As
0.850000 0.975000 1.000000 As
0.050000 0.675000 1.000000 As
0.250000 0.375000 1.000000 As
0.450000 0.075000 1.000000 As
0.650000 0.775000 1.000000 As
0.850000 0.475000 1.000000 As
0.050000 0.175000 1.000000 As
0.150000 0.025000 1.000000 As
0.350000 0.725000 1.000000 As
0.550000 0.425000 1.000000 As
0.750000 0.125000 1.000000 As
0.950000 0.825000 1.000000 As
0.150000 0.525000 1.000000 As
0.350000 0.225000 1.000000 As
0.550000 0.925000 1.000000 As
0.750000 0.625000 1.000000 As
0.950000 0.325000 1.000000 As
0.100000 0.850000 0.079704 As
0.300000 0.550000 0.079704 As
0.500000 0.250000 0.079704 As
0.700000 0.950000 0.079704 As
0.900000 0.650000 0.079704 As
0.100000 0.350000 0.079704 As
0.300000 0.050000 0.079704 As
0.500000 0.750000 0.079704 As
0.700000 0.450000 0.079704 As
0.900000 0.150000 0.079704 As
0.200000 0.700000 0.079704 As
0.400000 0.400000 0.079704 As
0.600000 0.100000 0.079704 As
0.800000 0.800000 0.079704 As
0.000000 0.500000 0.079704 As
0.200000 0.200000 0.079704 As
0.400000 0.900000 0.079704 As
0.600000 0.600000 0.079704 As
0.800000 0.300000 0.079704 As
1.000000 -0.000000 0.079704 As
0.150000 0.025000 0.053136 As
0.350000 0.725000 0.053136 As
0.550000 0.425000 0.053136 As
0.750000 0.125000 0.053136 As
0.950000 0.825000 0.053136 As
0.150000 0.525000 0.053136 As
0.350000 0.225000 0.053136 As
0.550000 0.925000 0.053136 As
0.750000 0.625000 0.053136 As
0.950000 0.325000 0.053136 As
0.250000 0.875000 0.053136 As
0.450000 0.575000 0.053136 As
0.650000 0.275000 0.053136 As
0.850000 0.975000 0.053136 As
0.050000 0.675000 0.053136 As
0.250000 0.375000 0.053136 As
0.450000 0.075000 0.053136 As
0.650000 0.775000 0.053136 As
0.850000 0.475000 0.053136 As
0.050000 0.175000 0.053136 As
0.200000 0.200000 0.132841 As
0.400000 0.900000 0.132841 As
0.600000 0.600000 0.132841 As
0.800000 0.300000 0.132841 As
0.000000 1.000000 0.132841 As
0.200000 0.700000 0.132841 As
0.400000 0.400000 0.132841 As
0.600000 0.100000 0.132841 As
0.800000 0.800000 0.132841 As
0.000000 0.500000 0.132841 As
0.300000 0.050000 0.132841 As
0.500000 0.750000 0.132841 As
0.700000 0.450000 0.132841 As
0.900000 0.150000 0.132841 As
0.100000 0.850000 0.132841 As
0.300000 0.550000 0.132841 As
0.500000 0.250000 0.132841 As
0.700000 0.950000 0.132841 As
0.900000 0.650000 0.132841 As
0.100000 0.350000 0.132841 As
0.250000 0.875000 0.106273 As
0.450000 0.575000 0.106273 As
0.650000 0.275000 0.106273 As
0.850000 0.975000 0.106273 As
0.050000 0.675000 0.106273 As
0.250000 0.375000 0.106273 As
0.450000 0.075000 0.106273 As
0.650000 0.775000 0.106273 As
0.850000 0.475000 0.106273 As
0.050000 0.175000 0.106273 As
0.150000 0.025000 0.106273 As
0.350000 0.725000 0.106273 As
0.550000 0.425000 0.106273 As
0.750000 0.125000 0.106273 As
0.950000 0.825000 0.106273 As
0.150000 0.525000 0.106273 As
0.350000 0.225000 0.106273 As
0.550000 0.925000 0.106273 As
0.750000 0.625000 0.106273 As
0.950000 0.325000 0.106273 As
0.300000 0.050000 0.185977 As
0.500000 0.750000 0.185977 As
0.700000 0.450000 0.185977 As
0.900000 0.150000 0.185977 As
0.100000 0.850000 0.185977 As
0.300000 0.550000 0.185977 As
0.500000 0.250000 0.185977 As
0.700000 0.950000 0.185977 As
0.900000 0.650000 0.185977 As
0.100000 0.350000 0.185977 As
0.200000 0.200000 0.185977 As
0.400000 0.900000 0.185977 As
0.600000 0.600000 0.185977 As
0.800000 0.300000 0.185977 As
0.000000 1.000000 0.185977 As
0.200000 0.700000 0.185977 As
0.400000 0.400000 0.185977 As
0.600000 0.100000 0.185977 As
0.800000 0.800000 0.185977 As
0.000000 0.500000 0.185977 As
0.150000 0.025000 0.159409 As
0.350000 0.725000 0.159409 As
0.550000 0.425000 0.159409 As
0.750000 0.125000 0.159409 As
0.950000 0.825000 0.159409 As
0.150000 0.525000 0.159409 As
0.350000 0.225000 0.159409 As
0.550000 0.925000 0.159409 As
0.750000 0.625000 0.159409 As
0.950000 0.325000 0.159409 As
0.250000 0.875000 0.159409 As
0.450000 0.575000 0.159409 As
0.650000 0.275000 0.159409 As
0.850000 0.975000 0.159409 As
0.050000 0.675000 0.159409 As
0.250000 0.375000 0.159409 As
0.450000 0.075000 0.159409 As
0.650000 0.775000 0.159409 As
0.850000 0.475000 0.159409 As
0.050000 0.175000 0.159409 As
0.200000 0.200000 0.239113 As
0.400000 0.900000 0.239113 As
0.600000 0.600000 0.239113 As
0.800000 0.300000 0.239113 As
0.000000 1.000000 0.239113 As
0.200000 0.700000 0.239113 As
0.400000 0.400000 0.239113 As
0.600000 0.100000 0.239113 As
0.800000 0.800000 0.239113 As
0.000000 0.500000 0.239113 As
0.300000 0.050000 0.239113 As
0.500000 0.750000 0.239113 As
0.700000 0.450000 0.239113 As
0.900000 0.150000 0.239113 As
0.100000 0.850000 0.239113 As
0.300000 0.550000 0.239113 As
0.500000 0.250000 0.239113 As
0.700000 0.950000 0.239113 As
0.900000 0.650000 0.239113 As
0.100000 0.350000 0.239113 As
0.250000 0.875000 0.212545 As
0.450000 0.575000 0.212545 As
0.650000 0.275000 0.212545 As
0.850000 0.975000 0.212545 As
0.050000 0.675000 0.212545 As
0.250000 0.375000 0.212545 As
0.450000 0.075000 0.212545 As
0.650000 0.775000 0.212545 As
0.850000 0.475000 0.212545 As
0.050000 0.175000 0.212545 As
0.150000 0.025000 0.212545 As
0.350000 0.725000 0.212545 As
0.550000 0.425000 0.212545 As
0.750000 0.125000 0.212545 As
0.950000 0.825000 0.212545 As
0.150000 0.525000 0.212545 As
0.350000 0.225000 0.212545 As
0.550000 0.925000 0.212545 As
0.750000 0.625000 0.212545 As
0.950000 0.325000 0.212545 As
0.176989 0.957958 0.268357 As
0.415085 0.910339 0.268357 As
0.653180 0.862720 0.268357 As
0.891275 0.815100 0.268357 As
0.129370 0.767481 0.268357 As
0.367466 0.719862 0.268357 As
0.605561 0.672243 0.268357 As
0.843656 0.624624 0.268357 As
0.081751 0.577005 0.268357 As
0.319847 0.529386 0.268357 As
0.557942 0.481767 0.268357 As
0.796037 0.434148 0.268357 As
0.034132 0.386529 0.268357 As
0.272227 0.338910 0.268357 As
0.510323 0.291291 0.268357 As
0.748418 0.243672 0.268357 As
0.986513 0.196053 0.268357 As
0.224608 0.148434 0.268357 As
0.462704 0.100815 0.268357 As
0.700799 0.053196 0.268357 As
0.938894 0.005577 0.268357 As
0.057928 0.981710 0.296913 As
0.296023 0.934091 0.296913 As
0.534118 0.886472 0.296913 As
0.772213 0.838853 0.296913 As
0.010308 0.791234 0.296913 As
0.248404 0.743615 0.296913 As
0.486499 0.695996 0.296913 As
0.724594 0.648377 0.296913 As
0.962689 0.600758 0.296913 As
0.200785 0.553139 0.296913 As
0.438880 0.505520 0.296913 As
0.676975 0.457900 0.296913 As
0.915070 0.410281 0.296913 As
0.153166 0.362662 0.296913 As
0.391261 0.315043 0.296913 As
0.629356 0.267424 0.296913 As
0.867451 0.219805 0.296913 As
0.105547 0.172186 0.296913 As
0.343642 0.124567 0.296913 As
0.581737 0.076948 0.296913 As
0.819832 0.029329 0.296913 As
0.153180 0.862720 0.311203 As
0.391275 0.815100 0.311203 As
0.629370 0.767481 0.311203 As
0.867466 0.719862 0.311203 As
0.105561 0.672243 0.311203 As
0.343656 0.624624 0.311203 As
0.581751 0.577005 0.311203 As
0.819847 0.529386 0.311203 As
0.057942 0.481767 0.311203 As
0.296037 0.434148 0.311203 As
0.534132 0.386529 0.311203 As
0.772227 0.338910 0.311203 As
0.010323 0.291291 0.311203 As
0.248418 0.243672 0.311203 As
0.486513 0.196053 0.311203 As
0.724608 0.148434 0.311203 As
0.962704 0.100815 0.311203 As
0.200799 0.053196 0.311203 As
0.438894 0.005577 0.311203 As
0.676989 0.957958 0.311203 As
0.915085 0.910339 0.311203 As
0.034118 0.886472 0.339759 As
0.272213 0.838853 0.339759 As
0.510308 0.791234 0.339759 As
0.748404 0.743615 0.339759 As
0.986499 0.695996 0.339759 As
0.224594 0.648377 0.339759 As
0.462689 0.600758 0.339759 As
0.700785 0.553139 0.339759 As
0.938880 0.505520 0.339759 As
0.176975 0.457900 0.339759 As
0.415070 0.410281 0.339759 As
0.653166 0.362662 0.339759 As
0.891261 0.315043 0.339759 As
0.129356 0.267424 0.339759 As
0.367451 0.219805 0.339759 As
0.605547 0.172186 0.339759 As
0.843642 0.124567 0.339759 As
0.081737 0.076948 0.339759 As
0.319832 0.029329 0.339759 As
0.557928 0.981710 0.339759 As
0.796023 0.934091 0.339759 As
0.176989 0.957958 0.354050 As
0.415085 0.910339 0.354050 As
0.653180 0.862720 0.354050 As
0.891275 0.815100 0.354050 As
0.129370 0.767481 0.354050 As
0.367466 0.719862 0.354050 As
0.605561 0.672243 0.354050 As
0.843656 0.624624 0.354050 As
0.081751 0.577005 0.354050 As
0.319847 0.529386 0.354050 As
0.557942 0.481767 0.354050 As
0.796037 0.434148 0.354050 As
0.034132 0.386529 0.354050 As
0.272227 0.338910 0.354050 As
0.510323 0.291291 0.354050 As
0.748418 0.243672 0.354050 As
0.986513 0.196053 0.354050 As
0.224608 0.148434 0.354050 As
0.462704 0.100815 0.354050 As
0.700799 0.053196 0.354050 As
0.938894 0.005577 0.354050 As
0.057928 0.981710 0.382606 As
0.296023 0.934091 0.382606 As
0.534118 0.886472 0.382606 As
0.772213 0.838853 0.382606 As
0.010308 0.791234 0.382606 As
0.248404 0.743615 0.382606 As
0.486499 0.695996 0.382606 As
0.724594 0.648377 0.382606 As
0.962689 0.600758 0.382606 As
0.200785 0.553139 0.382606 As
0.438880 0.505520 0.382606 As
0.676975 0.457900 0.382606 As
0.915070 0.410281 0.382606 As
0.153166 0.362662 0.382606 As
0.391261 0.315043 0.382606 As
0.629356 0.267424 0.382606 As
0.867451 0.219805 0.382606 As
0.105547 0.172186 0.382606 As
0.343642 0.124567 0.382606 As
0.581737 0.076948 0.382606 As
0.819832 0.029329 0.382606 As
0.153180 0.862720 0.396896 As
0.391275 0.815100 0.396896 As
0.629370 0.767481 0.396896 As
0.867466 0.719862 0.396896 As
0.105561 0.672243 0.396896 As
0.343656 0.624624 0.396896 As
0.581751 0.577005 0.396896 As
0.819847 0.529386 0.396896 As
0.057942 0.481767 0.396896 As
0.296037 0.434148 0.396896 As
0.534132 0.386529 0.396896 As
0.772227 0.338910 0.396896 As
0.010323 0.291291 0.396896 As
0.248418 0.243672 0.396896 As
0.486513 0.196053 0.396896 As
0.724608 0.148434 0.396896 As
0.962704 0.100815 0.396896 As
0.200799 0.053196 0.396896 As
0.438894 0.005577 0.396896 As
0.676989 0.957958 0.396896 As
0.915085 0.910339 0.396896 As
0.034118 0.886472 0.425452 As
0.272213 0.838853 0.425452 As
0.510308 0.791234 0.425452 As
0.748404 0.743615 0.425452 As
0.986499 0.695996 0.425452 As
0.224594 0.648377 0.425452 As
0.462689 0.600758 0.425452 As
0.700785 0.553139 0.425452 As
0.938880 0.505520 0.425452 As
0.176975 0.457900 0.425452 As
0.415070 0.410281 0.425452 As
0.653166 0.362662 0.425452 As
0.891261 0.315043 0.425452 As
0.129356 0.267424 0.425452 As
0.367451 0.219805 0.425452 As
0.605547 0.172186 0.425452 As
0.843642 0.124567 0.425452 As
0.081737 0.076948 0.425452 As
0.319832 0.029329 0.425452 As
0.557928 0.981710 0.425452 As
0.796023 0.934091 0.425452 As
0.176989 0.957958 0.439743 As
0.415085 0.910339 0.439743 As
0.653180 0.862720 0.439743 As
0.891275 0.815100 0.439743 As
0.129370 0.767481 0.439743 As
0.367466 0.719862 0.439743 As
0.605561 0.672243 0.439743 As
0.843656 0.624624 0.439743 As
0.081751 0.577005 0.439743 As
0.319847 0.529386 0.439743 As
0.557942 0.481767 0.439743 As
0.796037 0.434148 0.439743 As
0.034132 0.386529 0.439743 As
0.272227 0.338910 0.439743 As
0.510323 0.291291 0.439743 As
0.748418 0.243672 0.439743 As
0.986513 0.196053 0.439743 As
0.224608 0.148434 0.439743 As
0.462704 0.100815 0.439743 As
0.700799 0.053196 0.439743 As
0.938894 0.005577 0.439743 As
0.057928 0.981710 0.468298 As
0.296023 0.934091 0.468298 As
0.534118 0.886472 0.468298 As
0.772213 0.838853 0.468298 As
0.010308 0.791234 0.468298 As
0.248404 0.743615 0.468298 As
0.486499 0.695996 0.468298 As
0.724594 0.648377 0.468298 As
0.962689 0.600758 0.468298 As
0.200785 0.553139 0.468298 As
0.438880 0.505520 0.468298 As
0.676975 0.457900 0.468298 As
0.915070 0.410281 0.468298 As
0.153166 0.362662 0.468298 As
0.391261 0.315043 0.468298 As
0.629356 0.267424 0.468298 As
0.867451 0.219805 0.468298 As
0.105547 0.172186 0.468298 As
0.343642 0.124567 0.468298 As
0.581737 0.076948 0.468298 As
0.819832 0.029329 0.468298 As
