Al144 In108 As112 H4
1.0
-4.283932 -7.419988 0.000000
-4.283932 7.419988 0.000000
0.000000 0.000000 -214.242634
Al In As H
152 100 112 4
direct
0.000000 0.666667 0.626592 Al
0.000000 0.333333 0.626592 Al
0.000000 0.000000 0.626592 Al
0.666667 0.333333 0.626592 Al
0.666667 1.000000 0.626592 Al
0.666667 0.666667 0.626592 Al
0.333333 1.000000 0.626592 Al
0.333333 0.666667 0.626592 Al
0.333333 0.333333 0.626592 Al
0.222222 0.444444 0.615707 Al
0.222222 0.111111 0.615707 Al
0.222222 0.777778 0.615707 Al
0.888889 0.111111 0.615707 Al
0.888889 0.777778 0.615707 Al
0.888889 0.444444 0.615707 Al
0.555556 0.777778 0.615707 Al
0.555556 0.444444 0.615707 Al
0.555556 0.111111 0.615707 Al
0.444444 0.888889 0.604823 Al
0.444444 0.555556 0.604823 Al
0.444444 0.222222 0.604823 Al
0.111111 0.555556 0.604823 Al
0.111111 0.222222 0.604823 Al
0.111111 0.888889 0.604823 Al
0.777778 0.222222 0.604823 Al
0.777778 0.888889 0.604823 Al
0.777778 0.555556 0.604823 Al
0.000000 0.666667 0.593939 Al
0.000000 0.333333 0.593939 Al
0.000000 0.000000 0.593939 Al
0.666667 0.333333 0.593939 Al
0.666667 1.000000 0.593939 Al
0.666667 0.666667 0.593939 Al
0.333333 1.000000 0.593939 Al
0.333333 0.666667 0.593939 Al
0.333333 0.333333 0.593939 Al
0.222222 0.444444 0.583054 Al
0.222222 0.111111 0.583054 Al
0.222222 0.777778 0.583054 Al
0.888889 0.111111 0.583054 Al
0.888889 0.777778 0.583054 Al
0.888889 0.444444 0.583054 Al
0.555556 0.777778 0.583054 Al
0.555556 0.444444 0.583054 Al
0.555556 0.111111 0.583054 Al
0.444444 0.888889 0.572170 Al
0.444444 0.555556 0.572170 Al
0.444444 0.222222 0.572170 Al
0.111111 0.555556 0.572170 Al
0.111111 0.222222 0.572170 Al
0.111111 0.888889 0.572170 Al
0.777778 0.222222 0.572170 Al
0.777778 0.888889 0.572170 Al
0.777778 0.555556 0.572170 Al
1.000000 0.666667 0.561286 Al
1.000000 0.333333 0.561286 Al
0.000000 0.000000 0.561286 Al
0.666667 0.333333 0.561286 Al
0.666667 0.000000 0.561286 Al
0.666667 0.666667 0.561286 Al
0.333333 0.000000 0.561286 Al
0.333333 0.666667 0.561286 Al
0.333333 0.333333 0.561286 Al
0.222222 0.444444 0.550402 Al
0.222222 0.111111 0.550402 Al
0.222222 0.777778 0.550402 Al
0.888889 0.111111 0.550402 Al
0.888889 0.777778 0.550402 Al
0.888889 0.444444 0.550402 Al
0.555556 0.777778 0.550402 Al
0.555556 0.444444 0.550402 Al
0.555556 0.111111 0.550402 Al
0.444444 0.888889 0.539517 Al
0.444444 0.555556 0.539517 Al
0.444444 0.222222 0.539517 Al
0.111111 0.555556 0.539517 Al
0.111111 0.222222 0.539517 Al
0.111111 0.888889 0.539517 Al
0.777778 0.222222 0.539517 Al
0.777778 0.888889 0.539517 Al
0.777778 0.555556 0.539517 Al
0.000000 0.666667 0.528633 Al
0.000000 0.333333 0.528633 Al
0.000000 0.000000 0.528633 Al
0.666667 0.333333 0.528633 Al
0.666667 0.000000 0.528633 Al
0.666667 0.666667 0.528633 Al
0.333333 0.000000 0.528633 Al
0.333333 0.666667 0.528633 Al
0.333333 0.333333 0.528633 Al
0.222222 0.444444 0.517749 Al
0.222222 0.111111 0.517749 Al
0.222222 0.777778 0.517749 Al
0.888889 0.111111 0.517749 Al
0.888889 0.777778 0.517749 Al
0.888889 0.444444 0.517749 Al
0.555556 0.777778 0.517749 Al
0.555556 0.444444 0.517749 Al
0.555556 0.111111 0.517749 Al
0.444444 0.888889 0.506864 Al
0.444444 0.555556 0.506864 Al
0.444444 0.222222 0.506864 Al
0.111111 0.555556 0.506864 Al
0.111111 0.222222 0.506864 Al
0.111111 0.888889 0.506864 Al
0.777778 0.222222 0.506864 Al
0.777778 0.888889 0.506864 Al
0.777778 0.555556 0.506864 Al
0.666667 0.333333 0.495980 Al
0.666667 1.000000 0.495980 Al
0.666667 0.666667 0.495980 Al
0.333333 1.000000 0.495980 Al
0.333333 0.666667 0.495980 Al
0.333333 0.333333 0.495980 Al
0.000000 0.666667 0.495980 Al
0.000000 0.333333 0.495980 Al
0.000000 0.000000 0.495980 Al
0.2240126758419006  0.4480253516837941  0.4847829040331729 Al F
0.2279814138268939  0.1139907069134469  0.4845431375037134 Al F
0.2240126758419006  0.7759873241580995  0.4847829040331729 Al F
0.8860092930865527  0.1139907069134469  0.4845431375037134 Al F
0.8860092930865527  0.7720185861731059  0.4845431375037134 Al F
0.8859152756791021  0.4429571378395488  0.4839342080857015 Al F
0.5519746483162054  0.7759873241580995  0.4847829040331729 Al F
0.5570428621604513  0.4429571378395488  0.4839342080857015 Al F
0.5570428621604513  0.1140847243208980  0.4839342080857015 Al F
0.4504957504069201  0.9009925008138376  0.4725071015406297 Al
0.4504957504069201  0.5495042495930800  0.4725071015406297 Al
0.4461733217811499  0.2230861608905727  0.471300148408078  Al
0.0990074991861625  0.5495042495930800  0.4725071015406297 Al
0.1153795496331162  0.2307580992662278  0.4731376206478303 Al
0.1153795496331162  0.8846204503668834  0.4731376206478303 Al
0.7769138391094272  0.2230861608905727  0.471300148408078  Al
0.7692419007337723  0.8846204503668834  0.4731376206478303 Al
0.7769138391094272  0.5538266782188501  0.471300148408078  Al
0.0048658296576409  0.6802558185254070  0.4601455446778138 Al
0.0048658296576409  0.3246100111322340  0.4601455446778138 Al
0.0000000000000000  0.0000000000000000  0.4628632439814443 Al
0.6666669999999968  0.3333330000000032  0.4533034888073856 Al
0.6753899888677665  0.9951341703423591  0.4601455446778138 Al
0.6753899888677664  0.6802558185254070  0.4601455446778138 Al
0.3197441814745929  0.9951341703423591  0.4601455446778138 Al
0.3333330000000032  0.6666669999999968  0.4624408783840092 Al
0.3197441814745929  0.3246100111322340  0.4601455446778138 Al
0.0000000000000000  0.0000000000000000  0.4401305347670838 Al
0.9978168633838626  0.4989084316919348  0.4395133535902827 Al
0.5010915683080651  0.4989084316919348  0.4395133535902827 Al
0.5010915683080651  0.0021831366161373  0.4395133535902827 Al
0.3333330000000032  0.6666669999999968  0.424652822637063  Al
0.3323072821318587  0.1661541410659281  0.4246857029985292 Al
0.8338458589340720  0.1661541410659281  0.4246857029985292 Al
0.8338458589340720  0.6676927178681413  0.4246857029985292 Al
0.6666669999999968  0.3333330000000032  0.4086400655445428 In
0.6666708218943310  0.8333349109471704  0.4086155521518207 In
0.1666650890528298  0.8333349109471704  0.4086155521518207 In
0.1666650890528298  0.3333291781056692  0.4086155521518207 In
0.000000 0.000000 0.391834 In
1.000000 0.500000 0.391834 In
0.500000 0.500000 0.391834 In
0.500000 0.000000 0.391834 In
0.333333 0.666667 0.375508 In
0.333333 0.166667 0.375508 In
0.833333 0.166667 0.375508 In
0.833333 0.666667 0.375508 In
0.666667 0.333333 0.359182 In
0.666667 0.833333 0.359182 In
0.166667 0.833333 0.359182 In
0.166667 0.333333 0.359182 In
0.000000 0.000000 0.342855 In
1.000000 0.500000 0.342855 In
0.500000 0.500000 0.342855 In
0.500000 0.000000 0.342855 In
0.333333 0.666667 0.326529 In
0.333333 0.166667 0.326529 In
0.833333 0.166667 0.326529 In
0.833333 0.666667 0.326529 In
0.666667 0.333333 0.310202 In
0.666667 0.833333 0.310202 In
0.166667 0.833333 0.310202 In
0.166667 0.333333 0.310202 In
0.000000 0.000000 0.293876 In
1.000000 0.500000 0.293876 In
0.500000 0.500000 0.293876 In
0.500000 0.000000 0.293876 In
0.333333 0.666667 0.277549 In
0.333333 0.166667 0.277549 In
0.833333 0.166667 0.277549 In
0.833333 0.666667 0.277549 In
0.666667 0.333333 0.261223 In
0.666667 0.833333 0.261223 In
0.166667 0.833333 0.261223 In
0.166667 0.333333 0.261223 In
0.000000 0.000000 0.244897 In
1.000000 0.500000 0.244897 In
0.500000 0.500000 0.244897 In
0.500000 0.000000 0.244897 In
0.333333 0.666667 0.228570 In
0.333333 0.166667 0.228570 In
0.833333 0.166667 0.228570 In
0.833333 0.666667 0.228570 In
0.666667 0.333333 0.212244 In
0.666667 0.833333 0.212244 In
0.166667 0.833333 0.212244 In
0.166667 0.333333 0.212244 In
0.000000 0.000000 0.195917 In
0.000000 0.500000 0.195917 In
0.500000 0.500000 0.195917 In
0.500000 1.000000 0.195917 In
0.333333 0.666667 0.179591 In
0.333333 0.166667 0.179591 In
0.833333 0.166667 0.179591 In
0.833333 0.666667 0.179591 In
0.666667 0.333333 0.163264 In
0.666667 0.833333 0.163264 In
0.166667 0.833333 0.163264 In
0.166667 0.333333 0.163264 In
0.000000 0.000000 0.146938 In
1.000000 0.500000 0.146938 In
0.500000 0.500000 0.146938 In
0.500000 0.000000 0.146938 In
0.333333 0.166667 0.130611 In
0.833333 0.166667 0.130611 In
0.833333 0.666667 0.130611 In
0.333333 0.666667 0.130611 In
0.666667 0.333333 0.114285 In
0.666667 0.833333 0.114285 In
0.166667 0.833333 0.114285 In
0.166667 0.333333 0.114285 In
0.000000 0.000000 0.097959 In
1.000000 0.500000 0.097959 In
0.500000 0.500000 0.097959 In
0.500000 0.000000 0.097959 In
0.333333 0.666667 0.081632 In
0.333333 0.166667 0.081632 In
0.833333 0.166667 0.081632 In
0.833333 0.666667 0.081632 In
0.666667 0.333333 0.065306 In
0.666667 0.833333 0.065306 In
0.166667 0.833333 0.065306 In
0.166667 0.333333 0.065306 In
0.000000 0.000000 0.048979 In
0.000000 0.500000 0.048979 In
0.500000 0.500000 0.048979 In
0.500000 1.000000 0.048979 In
0.333333 0.666667 0.032653 In
0.333333 0.166667 0.032653 In
0.833333 0.166667 0.032653 In
0.833333 0.666667 0.032653 In
0.666667 0.333333 0.016326 In
0.666667 0.833333 0.016326 In
0.166667 0.833333 0.016326 In
0.166667 0.333333 0.016326 In
0.0000000000000000  0.0000000000000000   0.4516146269336033  As
0.9826642803657539  0.4913311401828759   0.4510822371841265  As
0.5086688598171243  0.4913311401828759   0.4510822371841265  As
0.5086688598171243  0.0173357196342460   0.4510822371841265  As
0.3333330000000032  0.6666669999999968   0.4362734835543441  As
0.3311363021276962  0.1655686510638433   0.4362937780227894  As
0.8344313489361566  0.1655686510638433   0.4362937780227894  As
0.8344313489361566  0.6688636978723037   0.4362937780227894  As
0.6666669999999968  0.3333330000000032   0.421317989959418   As
0.6667004353832616  0.8333497176916282   0.4212792144986155  As
0.1666502823083716  0.8333497176916282   0.4212792144986155  As
0.1666502823083716  0.3332995646167386   0.4212792144986155  As
0.0000000000000000  0.0000000000000000   0.4042636044671929  As
-0.0000512409254930  0.4999743795372535  0.4042746626130389  As
0.5000256204627465  0.4999743795372535   0.4042746626130389  As
0.5000256204627465  0.0000512409254930   0.4042746626130389  As
0.333333 0.666667 0.387753 As
0.333333 0.166667 0.387753 As
0.833333 0.166667 0.387753 As
0.833333 0.666667 0.387753 As
0.666667 0.333333 0.371426 As
0.666667 0.833333 0.371426 As
0.166667 0.833333 0.371426 As
0.166667 0.333333 0.371426 As
0.000000 0.000000 0.355100 As
1.000000 0.500000 0.355100 As
0.500000 0.500000 0.355100 As
0.500000 0.000000 0.355100 As
0.333333 0.666667 0.338774 As
0.333333 0.166667 0.338774 As
0.833333 0.166667 0.338774 As
0.833333 0.666667 0.338774 As
0.666667 0.333333 0.322447 As
0.666667 0.833333 0.322447 As
0.166667 0.833333 0.322447 As
0.166667 0.333333 0.322447 As
0.000000 0.000000 0.306121 As
1.000000 0.500000 0.306121 As
0.500000 0.500000 0.306121 As
0.500000 0.000000 0.306121 As
0.333333 0.666667 0.289794 As
0.333333 0.166667 0.289794 As
0.833333 0.166667 0.289794 As
0.833333 0.666667 0.289794 As
0.666667 0.333333 0.273468 As
0.666667 0.833333 0.273468 As
0.166667 0.833333 0.273468 As
0.166667 0.333333 0.273468 As
0.000000 0.000000 0.257141 As
1.000000 0.500000 0.257141 As
0.500000 0.500000 0.257141 As
0.500000 0.000000 0.257141 As
0.333333 0.666667 0.240815 As
0.333333 0.166667 0.240815 As
0.833333 0.166667 0.240815 As
0.833333 0.666667 0.240815 As
0.666667 0.333333 0.224489 As
0.666667 0.833333 0.224489 As
0.166667 0.833333 0.224489 As
0.166667 0.333333 0.224489 As
0.000000 0.000000 0.208162 As
1.000000 0.500000 0.208162 As
0.500000 0.500000 0.208162 As
0.500000 0.000000 0.208162 As
0.333333 0.666667 0.191836 As
0.333333 0.166667 0.191836 As
0.833333 0.166667 0.191836 As
0.833333 0.666667 0.191836 As
0.666667 0.333333 0.175509 As
0.666667 0.833333 0.175509 As
0.166667 0.833333 0.175509 As
0.166667 0.333333 0.175509 As
0.000000 0.000000 0.159183 As
1.000000 0.500000 0.159183 As
0.500000 0.500000 0.159183 As
0.500000 0.000000 0.159183 As
0.333333 0.666667 0.142856 As
0.333333 0.166667 0.142856 As
0.833333 0.166667 0.142856 As
0.833333 0.666667 0.142856 As
0.666667 0.333333 0.126530 As
0.666667 0.833333 0.126530 As
0.166667 0.833333 0.126530 As
0.166667 0.333333 0.126530 As
0.000000 0.000000 0.110203 As
1.000000 0.500000 0.110203 As
0.500000 0.500000 0.110203 As
0.500000 0.000000 0.110203 As
0.333333 0.666667 0.093877 As
0.333333 0.166667 0.093877 As
0.833333 0.166667 0.093877 As
0.833333 0.666667 0.093877 As
0.666667 0.333333 0.077551 As
0.666667 0.833333 0.077551 As
0.166667 0.833333 0.077551 As
0.166667 0.333333 0.077551 As
0.000000 0.000000 0.061224 As
1.000000 0.500000 0.061224 As
0.500000 0.500000 0.061224 As
0.500000 0.000000 0.061224 As
0.333333 0.666667 0.044898 As
0.333333 0.166667 0.044898 As
0.833333 0.166667 0.044898 As
0.833333 0.666667 0.044898 As
0.666667 0.333333 0.028571 As
0.666667 0.833333 0.028571 As
0.166667 0.833333 0.028571 As
0.166667 0.333333 0.028571 As
0.000000 0.000000 0.012245 As
1.000000 0.500000 0.012245 As
0.500000 0.500000 0.012245 As
0.500000 0.000000 0.012245 As
0.000000 0.000000 0.005160 H
1.000000 0.500000 0.005160 H
0.500000 0.500000 0.005160 H
0.500000 0.000000 0.005160 H
