Al63 In48 As52 H12
1.0
-4.283936 -7.419994 0.000000
-4.283936 7.419994 0.000000
0.000000 0.000000 -139.039545
Al In As H
63 48 52 12
direct
1.000000 0.666667 0.311414 Al
1.000000 0.333333 0.311414 Al
0.000000 0.000000 0.311414 Al
0.666667 0.333333 0.311414 Al
0.666667 0.000000 0.311414 Al
0.666667 0.666667 0.311414 Al
0.333333 0.000000 0.311414 Al
0.333333 0.666667 0.311414 Al
0.333333 0.333333 0.311414 Al
0.222222 0.444444 0.294642 Al
0.222222 0.111111 0.294642 Al
0.222222 0.777778 0.294642 Al
0.888889 0.111111 0.294642 Al
0.888889 0.777778 0.294642 Al
0.888889 0.444444 0.294642 Al
0.555556 0.777778 0.294642 Al
0.555556 0.444444 0.294642 Al
0.555556 0.111111 0.294642 Al
0.444444 0.888889 0.277871 Al
0.444444 0.555556 0.277871 Al
0.444444 0.222222 0.277871 Al
0.111111 0.555556 0.277871 Al
0.111111 0.222222 0.277871 Al
0.111111 0.888889 0.277871 Al
0.777778 0.222222 0.277871 Al
0.777778 0.888889 0.277871 Al
0.777778 0.555556 0.277871 Al
0.666667 0.333333 0.261100 Al
0.666667 1.000000 0.261100 Al
0.666667 0.666667 0.261100 Al
0.333333 1.000000 0.261100 Al
0.333333 0.666667 0.261100 Al
0.333333 0.333333 0.261100 Al
0.000000 0.666667 0.261100 Al
0.000000 0.333333 0.261100 Al
0.000000 0.000000 0.261100 Al
0.222222 0.444444 0.244328 Al
0.222222 0.111111 0.244328 Al
0.222222 0.777778 0.244328 Al
0.888889 0.111111 0.244328 Al
0.888889 0.777778 0.244328 Al
0.888889 0.444444 0.244328 Al
0.555556 0.777778 0.244328 Al
0.555556 0.444444 0.244328 Al
0.555556 0.111111 0.244328 Al
0.444444 0.888889 0.227557 Al
0.444444 0.555556 0.227557 Al
0.444444 0.222222 0.227557 Al
0.111111 0.555556 0.227557 Al
0.111111 0.222222 0.227557 Al
0.111111 0.888889 0.227557 Al
0.777778 0.222222 0.227557 Al
0.777778 0.888889 0.227557 Al
0.777778 0.555556 0.227557 Al
1.000000 0.666667 0.210786 Al
1.000000 0.333333 0.210786 Al
0.000000 0.000000 0.210786 Al
0.666667 0.333333 0.210786 Al
0.666667 0.000000 0.210786 Al
0.666667 0.666667 0.210786 Al
0.333333 0.000000 0.210786 Al
0.333333 0.666667 0.210786 Al
0.333333 0.333333 0.210786 Al
0.000000 0.000000 0.610253 In
0.000000 0.500000 0.610253 In
0.500000 0.500000 0.610253 In
0.500000 1.000000 0.610253 In
0.333333 0.666667 0.585096 In
0.333333 0.166667 0.585096 In
0.833333 0.166667 0.585096 In
0.833333 0.666667 0.585096 In
0.666667 0.333333 0.559939 In
0.666667 0.833333 0.559939 In
0.166667 0.833333 0.559939 In
0.166667 0.333333 0.559939 In
0.000000 0.000000 0.534782 In
1.000000 0.500000 0.534782 In
0.500000 0.500000 0.534782 In
0.500000 0.000000 0.534782 In
0.333333 0.666667 0.509625 In
0.333333 0.166667 0.509625 In
0.833333 0.166667 0.509625 In
0.833333 0.666667 0.509625 In
0.666667 0.333333 0.484468 In
0.666667 0.833333 0.484468 In
0.166667 0.833333 0.484468 In
0.166667 0.333333 0.484468 In
0.000000 0.000000 0.459311 In
1.000000 0.500000 0.459311 In
0.500000 0.500000 0.459311 In
0.500000 0.000000 0.459311 In
0.333333 0.666667 0.434154 In
0.333333 0.166667 0.434154 In
0.833333 0.166667 0.434154 In
0.833333 0.666667 0.434154 In
0.666667 0.333333 0.408997 In
0.666667 0.833333 0.408997 In
0.166667 0.833333 0.408997 In
0.166667 0.333333 0.408997 In
0.000000 0.000000 0.383840 In
1.000000 0.500000 0.383840 In
0.500000 0.500000 0.383840 In
0.500000 0.000000 0.383840 In
0.333333 0.666667 0.358683 In
0.333333 0.166667 0.358683 In
0.833333 0.166667 0.358683 In
0.833333 0.666667 0.358683 In
0.666667 0.333333 0.333526 In
0.666667 0.833333 0.333526 In
0.166667 0.833333 0.333526 In
0.166667 0.333333 0.333526 In
0.000000 0.000000 0.629121 As
1.000000 0.500000 0.629121 As
0.500000 0.500000 0.629121 As
0.500000 0.000000 0.629121 As
0.333333 0.666667 0.603964 As
0.333333 0.166667 0.603964 As
0.833333 0.166667 0.603964 As
0.833333 0.666667 0.603964 As
0.666667 0.333333 0.578807 As
0.666667 0.833333 0.578807 As
0.166667 0.833333 0.578807 As
0.166667 0.333333 0.578807 As
0.000000 0.000000 0.553650 As
1.000000 0.500000 0.553650 As
0.500000 0.500000 0.553650 As
0.500000 0.000000 0.553650 As
0.333333 0.666667 0.528493 As
0.333333 0.166667 0.528493 As
0.833333 0.166667 0.528493 As
0.833333 0.666667 0.528493 As
0.666667 0.833333 0.503336 As
0.166667 0.833333 0.503336 As
0.166667 0.333333 0.503336 As
0.666667 0.333333 0.503336 As
0.000000 0.000000 0.478179 As
1.000000 0.500000 0.478179 As
0.500000 0.500000 0.478179 As
0.500000 0.000000 0.478179 As
0.333333 0.666667 0.453022 As
0.333333 0.166667 0.453022 As
0.833333 0.166667 0.453022 As
0.833333 0.666667 0.453022 As
0.666667 0.333333 0.427864 As
0.666667 0.833333 0.427864 As
0.166667 0.833333 0.427864 As
0.166667 0.333333 0.427864 As
0.000000 0.000000 0.402707 As
1.000000 0.500000 0.402707 As
0.500000 0.500000 0.402707 As
0.500000 0.000000 0.402707 As
0.333333 0.666667 0.377550 As
0.333333 0.166667 0.377550 As
0.833333 0.166667 0.377550 As
0.833333 0.666667 0.377550 As
0.666667 0.333333 0.352393 As
0.666667 0.833333 0.352393 As
0.166667 0.833333 0.352393 As
0.166667 0.333333 0.352393 As
0.000000 0.000000 0.327236 As
1.000000 0.500000 0.327236 As
0.500000 0.500000 0.327236 As
0.500000 0.000000 0.327236 As
0.085768 0.171536 0.632357 H
0.085768 0.914232 0.632357 H
0.828465 0.914232 0.632357 H
0.085768 0.671536 0.632357 H
0.085768 0.414232 0.632357 H
0.828465 0.414232 0.632357 H
0.585768 0.671536 0.632357 H
0.585768 0.414232 0.632357 H
0.328465 0.414232 0.632357 H
0.585768 0.171536 0.632357 H
0.585768 0.914232 0.632357 H
0.328465 0.914232 0.632357 H
