In25 Fe130 Sb25 H10
1.0
0.000000 0.000000 10.244831
-0.000000 10.244831 0.000000
-72.615350 -0.000000 0.000000
In Fe Sb H
25 130 25 10
direct
0.000000 0.000000 0.223073 In
0.400000 0.200000 0.223073 In
0.800000 0.400000 0.223073 In
0.200000 0.600000 0.223073 In
0.600000 0.800000 0.223073 In
0.700000 0.100000 0.178458 In
0.100000 0.300000 0.178458 In
0.500000 0.500000 0.178458 In
0.900000 0.700000 0.178458 In
0.300000 0.900000 0.178458 In
0.000000 0.000000 0.133844 In
0.400000 0.200000 0.133844 In
0.800000 0.400000 0.133844 In
0.200000 0.600000 0.133844 In
0.600000 0.800000 0.133844 In
0.700000 0.100000 0.089229 In
0.100000 0.300000 0.089229 In
0.500000 0.500000 0.089229 In
0.900000 0.700000 0.089229 In
0.300000 0.900000 0.089229 In
0.000000 0.000000 0.044615 In
0.400000 0.200000 0.044615 In
0.800000 0.400000 0.044615 In
0.200000 0.600000 0.044615 In
0.600000 0.800000 0.044615 In
0.067745 0.250874 0.449152 Fe
0.913898 0.481643 0.449152 Fe
0.452360 0.173951 0.449152 Fe
0.298514 0.404720 0.449152 Fe
0.144668 0.635489 0.449152 Fe
0.836975 0.097028 0.449152 Fe
0.683129 0.327797 0.449152 Fe
0.529283 0.558566 0.449152 Fe
0.760052 0.712412 0.449152 Fe
0.606206 0.943182 0.449152 Fe
0.990822 0.866258 0.449152 Fe
0.375437 0.789335 0.449152 Fe
0.221591 0.020105 0.449152 Fe
0.029283 0.058566 0.429418 Fe
0.875437 0.289335 0.429418 Fe
0.721591 0.520105 0.429418 Fe
0.260052 0.212412 0.429418 Fe
0.106206 0.443182 0.429418 Fe
0.952360 0.673951 0.429418 Fe
0.644668 0.135489 0.429418 Fe
0.490822 0.366258 0.429418 Fe
0.336975 0.597028 0.429418 Fe
0.567745 0.750874 0.429418 Fe
0.413898 0.981643 0.429418 Fe
0.798514 0.904720 0.429418 Fe
0.183129 0.827797 0.429418 Fe
0.067745 0.250874 0.409684 Fe
0.913898 0.481643 0.409684 Fe
0.452360 0.173951 0.409684 Fe
0.298514 0.404720 0.409684 Fe
0.144668 0.635489 0.409684 Fe
0.836975 0.097028 0.409684 Fe
0.683129 0.327797 0.409684 Fe
0.529283 0.558566 0.409684 Fe
0.760052 0.712412 0.409684 Fe
0.606206 0.943182 0.409684 Fe
0.990822 0.866258 0.409684 Fe
0.375437 0.789335 0.409684 Fe
0.221591 0.020105 0.409684 Fe
0.029283 0.058566 0.389950 Fe
0.875437 0.289335 0.389950 Fe
0.721591 0.520105 0.389950 Fe
0.260052 0.212412 0.389950 Fe
0.106206 0.443182 0.389950 Fe
0.952360 0.673951 0.389950 Fe
0.644668 0.135489 0.389950 Fe
0.490822 0.366258 0.389950 Fe
0.336975 0.597028 0.389950 Fe
0.567745 0.750874 0.389950 Fe
0.413898 0.981643 0.389950 Fe
0.798514 0.904720 0.389950 Fe
0.183129 0.827797 0.389950 Fe
0.067745 0.250874 0.370216 Fe
0.913898 0.481643 0.370216 Fe
0.452360 0.173951 0.370216 Fe
0.298514 0.404720 0.370216 Fe
0.144668 0.635489 0.370216 Fe
0.836975 0.097028 0.370216 Fe
0.683129 0.327797 0.370216 Fe
0.529283 0.558566 0.370216 Fe
0.760052 0.712412 0.370216 Fe
0.606206 0.943182 0.370216 Fe
0.990822 0.866258 0.370216 Fe
0.375437 0.789335 0.370216 Fe
0.221591 0.020105 0.370216 Fe
0.029283 0.058566 0.350482 Fe
0.875437 0.289335 0.350482 Fe
0.721591 0.520105 0.350482 Fe
0.260052 0.212412 0.350482 Fe
0.106206 0.443182 0.350482 Fe
0.952360 0.673951 0.350482 Fe
0.644668 0.135489 0.350482 Fe
0.490822 0.366258 0.350482 Fe
0.336975 0.597028 0.350482 Fe
0.567745 0.750874 0.350482 Fe
0.413898 0.981643 0.350482 Fe
0.798514 0.904720 0.350482 Fe
0.183129 0.827797 0.350482 Fe
0.067745 0.250874 0.330748 Fe
0.913898 0.481643 0.330748 Fe
0.452360 0.173951 0.330748 Fe
0.298514 0.404720 0.330748 Fe
0.144668 0.635489 0.330748 Fe
0.836975 0.097028 0.330748 Fe
0.683129 0.327797 0.330748 Fe
0.529283 0.558566 0.330748 Fe
0.760052 0.712412 0.330748 Fe
0.606206 0.943182 0.330748 Fe
0.990822 0.866258 0.330748 Fe
0.375437 0.789335 0.330748 Fe
0.221591 0.020105 0.330748 Fe
0.029283 0.058566 0.311013 Fe
0.875437 0.289335 0.311013 Fe
0.721591 0.520105 0.311013 Fe
0.260052 0.212412 0.311013 Fe
0.106206 0.443182 0.311013 Fe
0.952360 0.673951 0.311013 Fe
0.644668 0.135489 0.311013 Fe
0.490822 0.366258 0.311013 Fe
0.336975 0.597028 0.311013 Fe
0.567745 0.750874 0.311013 Fe
0.413898 0.981643 0.311013 Fe
0.798514 0.904720 0.311013 Fe
0.183129 0.827797 0.311013 Fe
0.067745 0.250874 0.291279 Fe
0.913898 0.481643 0.291279 Fe
0.452360 0.173951 0.291279 Fe
0.298514 0.404720 0.291279 Fe
0.144668 0.635489 0.291279 Fe
0.836975 0.097028 0.291279 Fe
0.683129 0.327797 0.291279 Fe
0.529283 0.558566 0.291279 Fe
0.760052 0.712412 0.291279 Fe
0.606206 0.943182 0.291279 Fe
0.990822 0.866258 0.291279 Fe
0.375437 0.789335 0.291279 Fe
0.221591 0.020105 0.291279 Fe
0.029283 0.058566 0.271545 Fe
0.875437 0.289335 0.271545 Fe
0.721591 0.520105 0.271545 Fe
0.260052 0.212412 0.271545 Fe
0.106206 0.443182 0.271545 Fe
0.952360 0.673951 0.271545 Fe
0.644668 0.135489 0.271545 Fe
0.490822 0.366258 0.271545 Fe
0.336975 0.597028 0.271545 Fe
0.567745 0.750874 0.271545 Fe
0.413898 0.981643 0.271545 Fe
0.798514 0.904720 0.271545 Fe
0.183129 0.827797 0.271545 Fe
0.200000 0.100000 0.245380 Sb
0.600000 0.300000 0.245380 Sb
0.000000 0.500000 0.245380 Sb
0.800000 0.900000 0.245380 Sb
0.400000 0.700000 0.245380 Sb
0.500000 0.000000 0.200765 Sb
0.900000 0.200000 0.200765 Sb
0.300000 0.400000 0.200765 Sb
0.700000 0.600000 0.200765 Sb
0.100000 0.800000 0.200765 Sb
0.200000 0.100000 0.156151 Sb
0.600000 0.300000 0.156151 Sb
0.000000 0.500000 0.156151 Sb
0.800000 0.900000 0.156151 Sb
0.400000 0.700000 0.156151 Sb
0.500000 0.000000 0.111536 Sb
0.900000 0.200000 0.111536 Sb
0.300000 0.400000 0.111536 Sb
0.700000 0.600000 0.111536 Sb
0.100000 0.800000 0.111536 Sb
0.200000 0.100000 0.066922 Sb
0.600000 0.300000 0.066922 Sb
0.000000 0.500000 0.066922 Sb
0.800000 0.900000 0.066922 Sb
0.400000 0.700000 0.066922 Sb
0.944505 0.110990 0.028073 H
0.055495 0.889010 0.028073 H
0.655495 0.689010 0.028072 H
0.344505 0.310990 0.028072 H
0.144505 0.710990 0.028071 H
0.855495 0.289010 0.028071 H
0.255495 0.489010 0.028071 H
0.744505 0.510990 0.028071 H
0.455495 0.089010 0.028071 H
0.544505 0.910990 0.028070 H
