Al63 In48 As52 H4                       
   1.00000000000000     
    -4.2839320000000001   -7.4199880000000000    0.0000000000000000
    -4.2839320000000001    7.4199880000000000    0.0000000000000000
     0.0000000000000000    0.0000000000000000 -140.7884549999999990
   Al   In   As   H 
    63    48    52     4
Selective dynamics
Direct
  0.0000000000000000  0.6666669999999968  0.6431350000000009   F   F   F
  0.0000000000000000  0.3333330000000032  0.6431350000000009   F   F   F
  0.0000000000000000  0.0000000000000000  0.6431350000000009   F   F   F
  0.6666669999999968  0.3333330000000032  0.6431350000000009   F   F   F
  0.6666669999999968  0.0000000000000000  0.6431350000000009   F   F   F
  0.6666669999999968  0.6666669999999968  0.6431350000000009   F   F   F
  0.3333330000000032  0.0000000000000000  0.6431350000000009   F   F   F
  0.3333330000000032  0.6666669999999968  0.6431350000000009   F   F   F
  0.3333330000000032  0.3333330000000032  0.6431350000000009   F   F   F
  0.2222220000000021  0.4444439999999972  0.6265720000000030   F   F   F
  0.2222220000000021  0.1111110000000011  0.6265720000000030   F   F   F
  0.2222220000000021  0.7777779999999979  0.6265720000000030   F   F   F
  0.8888889999999989  0.1111110000000011  0.6265720000000030   F   F   F
  0.8888889999999989  0.7777779999999979  0.6265720000000030   F   F   F
  0.8888889999999989  0.4444439999999972  0.6265720000000030   F   F   F
  0.5555560000000028  0.7777779999999979  0.6265720000000030   F   F   F
  0.5555560000000028  0.4444439999999972  0.6265720000000030   F   F   F
  0.5555560000000028  0.1111110000000011  0.6265720000000030   F   F   F
  0.4444439999999972  0.8888889999999989  0.6100089999999980   F   F   F
  0.4444439999999972  0.5555560000000028  0.6100089999999980   F   F   F
  0.4444439999999972  0.2222220000000021  0.6100089999999980   F   F   F
  0.1111110000000011  0.5555560000000028  0.6100089999999980   F   F   F
  0.1111110000000011  0.2222220000000021  0.6100089999999980   F   F   F
  0.1111110000000011  0.8888889999999989  0.6100089999999980   F   F   F
  0.7777779999999979  0.2222220000000021  0.6100089999999980   F   F   F
  0.7777779999999979  0.8888889999999989  0.6100089999999980   F   F   F
  0.7777779999999979  0.5555560000000028  0.6100089999999980   F   F   F
  0.6666669999999968  0.3333330000000032  0.5934460000000001   F   F   F
  0.6666669999999968  0.0000000000000000  0.5934460000000001   F   F   F
  0.6666669999999968  0.6666669999999968  0.5934460000000001   F   F   F
  0.3333330000000032  0.0000000000000000  0.5934460000000001   F   F   F
  0.3333330000000032  0.6666669999999968  0.5934460000000001   F   F   F
  0.3333330000000032  0.3333330000000032  0.5934460000000001   F   F   F
  0.0000000000000000  0.6666669999999968  0.5934460000000001   F   F   F
  0.0000000000000000  0.3333330000000032  0.5934460000000001   F   F   F
  0.0000000000000000  0.0000000000000000  0.5934460000000001   F   F   F
  0.2240126758419006  0.4480253516837941  0.5764069939743725   T   T   T
  0.2279814138268939  0.1139907069134469  0.5760421330003925   T   T   T
  0.2240126758419006  0.7759873241580995  0.5764069939743725   T   T   T
  0.8860092930865527  0.1139907069134469  0.5760421330003925   T   T   T
  0.8860092930865527  0.7720185861731059  0.5760421330003925   T   T   T
  0.8859152756791021  0.4429571378395488  0.5751155041625736   T   T   T
  0.5519746483162054  0.7759873241580995  0.5764069939743725   T   T   T
  0.5570428621604513  0.4429571378395488  0.5751155041625736   T   T   T
  0.5570428621604513  0.1140847243208980  0.5751155041625736   T   T   T
  0.4499201938493138  0.8998413876986322  0.5584480010454462   T   T   T
  0.4499201938493138  0.5500798061506862  0.5584480010454462   T   T   T
  0.4468108650927198  0.2234054325463635  0.5559628319248601   T   T   T
  0.1001586123013678  0.5500798061506862  0.5584480010454462   T   T   T
  0.1172431603980467  0.2344863207960933  0.5600122328185387   T   T   T
  0.1172431603980467  0.8827568396019532  0.5600122328185387   T   T   T
  0.7765945674536364  0.2234054325463635  0.5559628319248601   T   T   T
  0.7655136792039063  0.8827568396019532  0.5600122328185387   T   T   T
  0.7765945674536364  0.5531891349072803  0.5559628319248601   T   T   T
  0.0103184257546889  0.6867085552702239  0.5404170461681593   T   T   T
  0.0103184257546889  0.3236098704844650  0.5404170461681593   T   T   T
 -0.0000000000000000 -0.0000000000000000  0.5455756105127594   T   T   T
  0.6666669999999968  0.3333330000000032  0.5343684285848682   T   T   T
  0.6763901295155341 -0.0103184257546889  0.5404170461681593   T   T   T
  0.6763901295155341  0.6867085552702239  0.5404170461681593   T   T   T
  0.3132914447297762 -0.0103184257546889  0.5404170461681593   T   T   T
  0.3333330000000032  0.6666669999999968  0.5430029608201012   T   T   T
  0.3132914447297762  0.3236098704844650  0.5404170461681593   T   T   T
 -0.0000000000000000 -0.0000000000000000  0.5097555972231007   T   T   T
 -0.0057578983071941  0.4971210508464030  0.5087179027317783   T   T   T
  0.5028789491535970  0.4971210508464030  0.5087179027317783   T   T   T
  0.5028789491535970  0.0057578983071941  0.5087179027317783   T   T   T
  0.3333330000000032  0.6666669999999968  0.4847665286214843   T   T   T
  0.3314627670889264  0.1657318835444584  0.4842442019567196   T   T   T
  0.8342681164555417  0.1657318835444584  0.4842442019567196   T   T   T
  0.8342681164555417  0.6685372329110735  0.4842442019567196   T   T   T
  0.6666669999999968  0.3333330000000032  0.4598089999999999   F   F   F
  0.6666669999999968  0.8333330000000032  0.4598089999999999   F   F   F
  0.1666669999999968  0.8333330000000032  0.4598089999999999   F   F   F
  0.1666669999999968  0.3333330000000032  0.4598089999999999   F   F   F
  0.0000000000000000  0.5000000000000000  0.4349640000000008   F   F   F
  0.5000000000000000  0.5000000000000000  0.4349640000000008   F   F   F
  0.5000000000000000  0.0000000000000000  0.4349640000000008   F   F   F
  0.0000000000000000  0.0000000000000000  0.4349640000000008   F   F   F
  0.3333330000000032  0.1666669999999968  0.4101199999999992   F   F   F
  0.8333330000000032  0.1666669999999968  0.4101199999999992   F   F   F
  0.8333330000000032  0.6666669999999968  0.4101199999999992   F   F   F
  0.3333330000000032  0.6666669999999968  0.4101199999999992   F   F   F
  0.6666669999999968  0.3333330000000032  0.3852750000000000   F   F   F
  0.6666669999999968  0.8333330000000032  0.3852750000000000   F   F   F
  0.1666669999999968  0.8333330000000032  0.3852750000000000   F   F   F
  0.1666669999999968  0.3333330000000032  0.3852750000000000   F   F   F
  0.0000000000000000  0.0000000000000000  0.3604309999999984   F   F   F
  0.0000000000000000  0.5000000000000000  0.3604309999999984   F   F   F
  0.5000000000000000  0.5000000000000000  0.3604309999999984   F   F   F
  0.5000000000000000  0.0000000000000000  0.3604309999999984   F   F   F
  0.3333330000000032  0.6666669999999968  0.3355859999999993   F   F   F
  0.3333330000000032  0.1666669999999968  0.3355859999999993   F   F   F
  0.8333330000000032  0.1666669999999968  0.3355859999999993   F   F   F
  0.8333330000000032  0.6666669999999968  0.3355859999999993   F   F   F
  0.6666669999999968  0.3333330000000032  0.3107419999999976   F   F   F
  0.6666669999999968  0.8333330000000032  0.3107419999999976   F   F   F
  0.1666669999999968  0.8333330000000032  0.3107419999999976   F   F   F
  0.1666669999999968  0.3333330000000032  0.3107419999999976   F   F   F
  0.0000000000000000  0.0000000000000000  0.2858969999999985   F   F   F
  0.0000000000000000  0.5000000000000000  0.2858969999999985   F   F   F
  0.5000000000000000  0.5000000000000000  0.2858969999999985   F   F   F
  0.5000000000000000  0.0000000000000000  0.2858969999999985   F   F   F
  0.3333330000000032  0.6666669999999968  0.2610529999999969   F   F   F
  0.3333330000000032  0.1666669999999968  0.2610529999999969   F   F   F
  0.8333330000000032  0.1666669999999968  0.2610529999999969   F   F   F
  0.8333330000000032  0.6666669999999968  0.2610529999999969   F   F   F
  0.6666669999999968  0.3333330000000032  0.2362079999999978   F   F   F
  0.6666669999999968  0.8333330000000032  0.2362079999999978   F   F   F
  0.1666669999999968  0.8333330000000032  0.2362079999999978   F   F   F
  0.1666669999999968  0.3333330000000032  0.2362079999999978   F   F   F
 -0.0000000000000000 -0.0000000000000000  0.5284978073640235   T   T   T
 -0.0323953549672801  0.4838023225163597  0.5274496020765578   T   T   T
  0.5161976774836398  0.4838023225163597  0.5274496020765578   T   T   T
  0.5161976774836398  0.0323953549672801  0.5274496020765578   T   T   T
  0.3333330000000032  0.6666669999999968  0.5034100310282323   T   T   T
  0.3286353421324644  0.1643181710662274  0.5028075789007257   T   T   T
  0.8356818289337727  0.1643181710662274  0.5028075789007257   T   T   T
  0.8356818289337727  0.6713646578675355  0.5028075789007257   T   T   T
  0.6666669999999968  0.3333330000000032  0.4784066418328549   T   T   T
  0.6641724926548830  0.8320857463274461  0.4783536094545932   T   T   T
  0.1679142536725537  0.8320857463274461  0.4783536094545932   T   T   T
  0.1679142536725537  0.3358275073451171  0.4783536094545932   T   T   T
  0.0000000000000000  0.0000000000000000  0.4535970000000020   F   F   F
  0.0000000000000000  0.5000000000000000  0.4535970000000020   F   F   F
  0.5000000000000000  0.5000000000000000  0.4535970000000020   F   F   F
  0.5000000000000000  0.0000000000000000  0.4535970000000020   F   F   F
  0.3333330000000032  0.6666669999999968  0.4287530000000004   F   F   F
  0.3333330000000032  0.1666669999999968  0.4287530000000004   F   F   F
  0.8333330000000032  0.1666669999999968  0.4287530000000004   F   F   F
  0.8333330000000032  0.6666669999999968  0.4287530000000004   F   F   F
  0.6666669999999968  0.3333330000000032  0.4039080000000013   F   F   F
  0.6666669999999968  0.8333330000000032  0.4039080000000013   F   F   F
  0.1666669999999968  0.8333330000000032  0.4039080000000013   F   F   F
  0.1666669999999968  0.3333330000000032  0.4039080000000013   F   F   F
  0.0000000000000000  0.0000000000000000  0.3790639999999996   F   F   F
  0.0000000000000000  0.5000000000000000  0.3790639999999996   F   F   F
  0.5000000000000000  0.5000000000000000  0.3790639999999996   F   F   F
  0.5000000000000000  0.0000000000000000  0.3790639999999996   F   F   F
  0.3333330000000032  0.6666669999999968  0.3542190000000005   F   F   F
  0.3333330000000032  0.1666669999999968  0.3542190000000005   F   F   F
  0.8333330000000032  0.1666669999999968  0.3542190000000005   F   F   F
  0.8333330000000032  0.6666669999999968  0.3542190000000005   F   F   F
  0.6666669999999968  0.3333330000000032  0.3293749999999989   F   F   F
  0.6666669999999968  0.8333330000000032  0.3293749999999989   F   F   F
  0.1666669999999968  0.8333330000000032  0.3293749999999989   F   F   F
  0.1666669999999968  0.3333330000000032  0.3293749999999989   F   F   F
  0.0000000000000000  0.0000000000000000  0.3045299999999997   F   F   F
  0.0000000000000000  0.5000000000000000  0.3045299999999997   F   F   F
  0.5000000000000000  0.5000000000000000  0.3045299999999997   F   F   F
  0.5000000000000000  0.0000000000000000  0.3045299999999997   F   F   F
  0.3333330000000032  0.6666669999999968  0.2796859999999981   F   F   F
  0.3333330000000032  0.1666669999999968  0.2796859999999981   F   F   F
  0.8333330000000032  0.1666669999999968  0.2796859999999981   F   F   F
  0.8333330000000032  0.6666669999999968  0.2796859999999981   F   F   F
  0.6666669999999968  0.3333330000000032  0.2548409999999990   F   F   F
  0.6666669999999968  0.8333330000000032  0.2548409999999990   F   F   F
  0.1666669999999968  0.8333330000000032  0.2548409999999990   F   F   F
  0.1666669999999968  0.3333330000000032  0.2548409999999990   F   F   F
  0.0000000000000000  0.0000000000000000  0.2299969999999973   F   F   F
  0.0000000000000000  0.5000000000000000  0.2299969999999973   F   F   F
  0.5000000000000000  0.5000000000000000  0.2299969999999973   F   F   F
  0.5000000000000000  0.0000000000000000  0.2299969999999973   F   F   F
  0.0000000000000000  0.0000000000000000  0.2192155029024035   F   F   T
  0.0000000000000000  0.5000000000000000  0.2192155039800843   F   F   T
  0.5000000000000000  0.5000000000000000  0.2192155039800843   F   F   T
  0.5000000000000000  0.0000000000000000  0.2192155039800843   F   F   T
 
  0.00000000E+00  0.00000000E+00  0.00000000E+00
  0.00000000E+00  0.00000000E+00  0.00000000E+00
  0.00000000E+00  0.00000000E+00  0.00000000E+00
  0.00000000E+00  0.00000000E+00  0.00000000E+00
  0.00000000E+00  0.00000000E+00  0.00000000E+00
  0.00000000E+00  0.00000000E+00  0.00000000E+00
  0.00000000E+00  0.00000000E+00  0.00000000E+00
  0.00000000E+00  0.00000000E+00  0.00000000E+00
  0.00000000E+00  0.00000000E+00  0.00000000E+00
  0.00000000E+00  0.00000000E+00  0.00000000E+00
  0.00000000E+00  0.00000000E+00  0.00000000E+00
  0.00000000E+00  0.00000000E+00  0.00000000E+00
  0.00000000E+00  0.00000000E+00  0.00000000E+00
  0.00000000E+00  0.00000000E+00  0.00000000E+00
  0.00000000E+00  0.00000000E+00  0.00000000E+00
  0.00000000E+00  0.00000000E+00  0.00000000E+00
  0.00000000E+00  0.00000000E+00  0.00000000E+00
  0.00000000E+00  0.00000000E+00  0.00000000E+00
  0.00000000E+00  0.00000000E+00  0.00000000E+00
  0.00000000E+00  0.00000000E+00  0.00000000E+00
  0.00000000E+00  0.00000000E+00  0.00000000E+00
  0.00000000E+00  0.00000000E+00  0.00000000E+00
  0.00000000E+00  0.00000000E+00  0.00000000E+00
  0.00000000E+00  0.00000000E+00  0.00000000E+00
  0.00000000E+00  0.00000000E+00  0.00000000E+00
  0.00000000E+00  0.00000000E+00  0.00000000E+00
  0.00000000E+00  0.00000000E+00  0.00000000E+00
  0.00000000E+00  0.00000000E+00  0.00000000E+00
  0.00000000E+00  0.00000000E+00  0.00000000E+00
  0.00000000E+00  0.00000000E+00  0.00000000E+00
  0.00000000E+00  0.00000000E+00  0.00000000E+00
  0.00000000E+00  0.00000000E+00  0.00000000E+00
  0.00000000E+00  0.00000000E+00  0.00000000E+00
  0.00000000E+00  0.00000000E+00  0.00000000E+00
  0.00000000E+00  0.00000000E+00  0.00000000E+00
  0.00000000E+00  0.00000000E+00  0.00000000E+00
  0.00000000E+00  0.00000000E+00  0.00000000E+00
  0.00000000E+00  0.00000000E+00  0.00000000E+00
  0.00000000E+00  0.00000000E+00  0.00000000E+00
  0.00000000E+00  0.00000000E+00  0.00000000E+00
  0.00000000E+00  0.00000000E+00  0.00000000E+00
  0.00000000E+00  0.00000000E+00  0.00000000E+00
  0.00000000E+00  0.00000000E+00  0.00000000E+00
  0.00000000E+00  0.00000000E+00  0.00000000E+00
  0.00000000E+00  0.00000000E+00  0.00000000E+00
  0.00000000E+00  0.00000000E+00  0.00000000E+00
  0.00000000E+00  0.00000000E+00  0.00000000E+00
  0.00000000E+00  0.00000000E+00  0.00000000E+00
  0.00000000E+00  0.00000000E+00  0.00000000E+00
  0.00000000E+00  0.00000000E+00  0.00000000E+00
  0.00000000E+00  0.00000000E+00  0.00000000E+00
  0.00000000E+00  0.00000000E+00  0.00000000E+00
  0.00000000E+00  0.00000000E+00  0.00000000E+00
  0.00000000E+00  0.00000000E+00  0.00000000E+00
  0.00000000E+00  0.00000000E+00  0.00000000E+00
  0.00000000E+00  0.00000000E+00  0.00000000E+00
  0.00000000E+00  0.00000000E+00  0.00000000E+00
  0.00000000E+00  0.00000000E+00  0.00000000E+00
  0.00000000E+00  0.00000000E+00  0.00000000E+00
  0.00000000E+00  0.00000000E+00  0.00000000E+00
  0.00000000E+00  0.00000000E+00  0.00000000E+00
  0.00000000E+00  0.00000000E+00  0.00000000E+00
  0.00000000E+00  0.00000000E+00  0.00000000E+00
  0.00000000E+00  0.00000000E+00  0.00000000E+00
  0.00000000E+00  0.00000000E+00  0.00000000E+00
  0.00000000E+00  0.00000000E+00  0.00000000E+00
  0.00000000E+00  0.00000000E+00  0.00000000E+00
  0.00000000E+00  0.00000000E+00  0.00000000E+00
  0.00000000E+00  0.00000000E+00  0.00000000E+00
  0.00000000E+00  0.00000000E+00  0.00000000E+00
  0.00000000E+00  0.00000000E+00  0.00000000E+00
  0.00000000E+00  0.00000000E+00  0.00000000E+00
  0.00000000E+00  0.00000000E+00  0.00000000E+00
  0.00000000E+00  0.00000000E+00  0.00000000E+00
  0.00000000E+00  0.00000000E+00  0.00000000E+00
  0.00000000E+00  0.00000000E+00  0.00000000E+00
  0.00000000E+00  0.00000000E+00  0.00000000E+00
  0.00000000E+00  0.00000000E+00  0.00000000E+00
  0.00000000E+00  0.00000000E+00  0.00000000E+00
  0.00000000E+00  0.00000000E+00  0.00000000E+00
  0.00000000E+00  0.00000000E+00  0.00000000E+00
  0.00000000E+00  0.00000000E+00  0.00000000E+00
  0.00000000E+00  0.00000000E+00  0.00000000E+00
  0.00000000E+00  0.00000000E+00  0.00000000E+00
  0.00000000E+00  0.00000000E+00  0.00000000E+00
  0.00000000E+00  0.00000000E+00  0.00000000E+00
  0.00000000E+00  0.00000000E+00  0.00000000E+00
  0.00000000E+00  0.00000000E+00  0.00000000E+00
  0.00000000E+00  0.00000000E+00  0.00000000E+00
  0.00000000E+00  0.00000000E+00  0.00000000E+00
  0.00000000E+00  0.00000000E+00  0.00000000E+00
  0.00000000E+00  0.00000000E+00  0.00000000E+00
  0.00000000E+00  0.00000000E+00  0.00000000E+00
  0.00000000E+00  0.00000000E+00  0.00000000E+00
  0.00000000E+00  0.00000000E+00  0.00000000E+00
  0.00000000E+00  0.00000000E+00  0.00000000E+00
  0.00000000E+00  0.00000000E+00  0.00000000E+00
  0.00000000E+00  0.00000000E+00  0.00000000E+00
  0.00000000E+00  0.00000000E+00  0.00000000E+00
  0.00000000E+00  0.00000000E+00  0.00000000E+00
  0.00000000E+00  0.00000000E+00  0.00000000E+00
  0.00000000E+00  0.00000000E+00  0.00000000E+00
  0.00000000E+00  0.00000000E+00  0.00000000E+00
  0.00000000E+00  0.00000000E+00  0.00000000E+00
  0.00000000E+00  0.00000000E+00  0.00000000E+00
  0.00000000E+00  0.00000000E+00  0.00000000E+00
  0.00000000E+00  0.00000000E+00  0.00000000E+00
  0.00000000E+00  0.00000000E+00  0.00000000E+00
  0.00000000E+00  0.00000000E+00  0.00000000E+00
  0.00000000E+00  0.00000000E+00  0.00000000E+00
  0.00000000E+00  0.00000000E+00  0.00000000E+00
  0.00000000E+00  0.00000000E+00  0.00000000E+00
  0.00000000E+00  0.00000000E+00  0.00000000E+00
  0.00000000E+00  0.00000000E+00  0.00000000E+00
  0.00000000E+00  0.00000000E+00  0.00000000E+00
  0.00000000E+00  0.00000000E+00  0.00000000E+00
  0.00000000E+00  0.00000000E+00  0.00000000E+00
  0.00000000E+00  0.00000000E+00  0.00000000E+00
  0.00000000E+00  0.00000000E+00  0.00000000E+00
  0.00000000E+00  0.00000000E+00  0.00000000E+00
  0.00000000E+00  0.00000000E+00  0.00000000E+00
  0.00000000E+00  0.00000000E+00  0.00000000E+00
  0.00000000E+00  0.00000000E+00  0.00000000E+00
  0.00000000E+00  0.00000000E+00  0.00000000E+00
  0.00000000E+00  0.00000000E+00  0.00000000E+00
  0.00000000E+00  0.00000000E+00  0.00000000E+00
  0.00000000E+00  0.00000000E+00  0.00000000E+00
  0.00000000E+00  0.00000000E+00  0.00000000E+00
  0.00000000E+00  0.00000000E+00  0.00000000E+00
  0.00000000E+00  0.00000000E+00  0.00000000E+00
  0.00000000E+00  0.00000000E+00  0.00000000E+00
  0.00000000E+00  0.00000000E+00  0.00000000E+00
  0.00000000E+00  0.00000000E+00  0.00000000E+00
  0.00000000E+00  0.00000000E+00  0.00000000E+00
  0.00000000E+00  0.00000000E+00  0.00000000E+00
  0.00000000E+00  0.00000000E+00  0.00000000E+00
  0.00000000E+00  0.00000000E+00  0.00000000E+00
  0.00000000E+00  0.00000000E+00  0.00000000E+00
  0.00000000E+00  0.00000000E+00  0.00000000E+00
  0.00000000E+00  0.00000000E+00  0.00000000E+00
  0.00000000E+00  0.00000000E+00  0.00000000E+00
  0.00000000E+00  0.00000000E+00  0.00000000E+00
  0.00000000E+00  0.00000000E+00  0.00000000E+00
  0.00000000E+00  0.00000000E+00  0.00000000E+00
  0.00000000E+00  0.00000000E+00  0.00000000E+00
  0.00000000E+00  0.00000000E+00  0.00000000E+00
  0.00000000E+00  0.00000000E+00  0.00000000E+00
  0.00000000E+00  0.00000000E+00  0.00000000E+00
  0.00000000E+00  0.00000000E+00  0.00000000E+00
  0.00000000E+00  0.00000000E+00  0.00000000E+00
  0.00000000E+00  0.00000000E+00  0.00000000E+00
  0.00000000E+00  0.00000000E+00  0.00000000E+00
  0.00000000E+00  0.00000000E+00  0.00000000E+00
  0.00000000E+00  0.00000000E+00  0.00000000E+00
  0.00000000E+00  0.00000000E+00  0.00000000E+00
  0.00000000E+00  0.00000000E+00  0.00000000E+00
  0.00000000E+00  0.00000000E+00  0.00000000E+00
  0.00000000E+00  0.00000000E+00  0.00000000E+00
  0.00000000E+00  0.00000000E+00  0.00000000E+00
  0.00000000E+00  0.00000000E+00  0.00000000E+00
  0.00000000E+00  0.00000000E+00  0.00000000E+00
  0.00000000E+00  0.00000000E+00  0.00000000E+00
  0.00000000E+00  0.00000000E+00  0.00000000E+00
  0.00000000E+00  0.00000000E+00  0.00000000E+00
  0.00000000E+00  0.00000000E+00  0.00000000E+00
  0.00000000E+00  0.00000000E+00  0.00000000E+00
  0.00000000E+00  0.00000000E+00  0.00000000E+00
