Al63 In48 As52 H4
1.0
-4.283932 -7.419988 0.000000
-4.283932 7.419988 0.000000
0.000000 0.000000 -140.788455
Al In As H
63 48 52 4
direct
0.000000 0.666667 0.643135 Al
0.000000 0.333333 0.643135 Al
0.000000 0.000000 0.643135 Al
0.666667 0.333333 0.643135 Al
0.666667 0.000000 0.643135 Al
0.666667 0.666667 0.643135 Al
0.333333 0.000000 0.643135 Al
0.333333 0.666667 0.643135 Al
0.333333 0.333333 0.643135 Al
0.222222 0.444444 0.626572 Al
0.222222 0.111111 0.626572 Al
0.222222 0.777778 0.626572 Al
0.888889 0.111111 0.626572 Al
0.888889 0.777778 0.626572 Al
0.888889 0.444444 0.626572 Al
0.555556 0.777778 0.626572 Al
0.555556 0.444444 0.626572 Al
0.555556 0.111111 0.626572 Al
0.444444 0.888889 0.610009 Al
0.444444 0.555556 0.610009 Al
0.444444 0.222222 0.610009 Al
0.111111 0.555556 0.610009 Al
0.111111 0.222222 0.610009 Al
0.111111 0.888889 0.610009 Al
0.777778 0.222222 0.610009 Al
0.777778 0.888889 0.610009 Al
0.777778 0.555556 0.610009 Al
0.666667 0.333333 0.593446 Al
0.666667 1.000000 0.593446 Al
0.666667 0.666667 0.593446 Al
0.333333 1.000000 0.593446 Al
0.333333 0.666667 0.593446 Al
0.333333 0.333333 0.593446 Al
0.000000 0.666667 0.593446 Al
0.000000 0.333333 0.593446 Al
0.000000 0.000000 0.593446 Al
0.222222 0.444444 0.576883 Al
0.222222 0.111111 0.576883 Al
0.222222 0.777778 0.576883 Al
0.888889 0.111111 0.576883 Al
0.888889 0.777778 0.576883 Al
0.888889 0.444444 0.576883 Al
0.555556 0.777778 0.576883 Al
0.555556 0.444444 0.576883 Al
0.555556 0.111111 0.576883 Al
0.444444 0.888889 0.560320 Al
0.444444 0.555556 0.560320 Al
0.444444 0.222222 0.560320 Al
0.111111 0.555556 0.560320 Al
0.111111 0.222222 0.560320 Al
0.111111 0.888889 0.560320 Al
0.777778 0.222222 0.560320 Al
0.777778 0.888889 0.560320 Al
0.777778 0.555556 0.560320 Al
1.000000 0.666667 0.543757 Al
1.000000 0.333333 0.543757 Al
0.000000 0.000000 0.543757 Al
0.666667 0.333333 0.543757 Al
0.666667 0.000000 0.543757 Al
0.666667 0.666667 0.543757 Al
0.333333 0.000000 0.543757 Al
0.333333 0.666667 0.543757 Al
0.333333 0.333333 0.543757 Al
0.000000 0.000000 0.509498 In
0.000000 0.500000 0.509498 In
0.500000 0.500000 0.509498 In
0.500000 1.000000 0.509498 In
0.333333 0.666667 0.484653 In
0.333333 0.166667 0.484653 In
0.833333 0.166667 0.484653 In
0.833333 0.666667 0.484653 In
0.666667 0.333333 0.459809 In
0.666667 0.833333 0.459809 In
0.166667 0.833333 0.459809 In
0.166667 0.333333 0.459809 In
1.000000 0.500000 0.434964 In
0.500000 0.500000 0.434964 In
0.500000 0.000000 0.434964 In
0.000000 0.000000 0.434964 In
0.333333 0.166667 0.410120 In
0.833333 0.166667 0.410120 In
0.833333 0.666667 0.410120 In
0.333333 0.666667 0.410120 In
0.666667 0.333333 0.385275 In
0.666667 0.833333 0.385275 In
0.166667 0.833333 0.385275 In
0.166667 0.333333 0.385275 In
0.000000 0.000000 0.360431 In
1.000000 0.500000 0.360431 In
0.500000 0.500000 0.360431 In
0.500000 0.000000 0.360431 In
0.333333 0.666667 0.335586 In
0.333333 0.166667 0.335586 In
0.833333 0.166667 0.335586 In
0.833333 0.666667 0.335586 In
0.666667 0.333333 0.310742 In
0.666667 0.833333 0.310742 In
0.166667 0.833333 0.310742 In
0.166667 0.333333 0.310742 In
0.000000 0.000000 0.285897 In
0.000000 0.500000 0.285897 In
0.500000 0.500000 0.285897 In
0.500000 0.000000 0.285897 In
0.333333 0.666667 0.261053 In
0.333333 0.166667 0.261053 In
0.833333 0.166667 0.261053 In
0.833333 0.666667 0.261053 In
0.666667 0.333333 0.236208 In
0.666667 0.833333 0.236208 In
0.166667 0.833333 0.236208 In
0.166667 0.333333 0.236208 In
0.000000 0.000000 0.528131 As
1.000000 0.500000 0.528131 As
0.500000 0.500000 0.528131 As
0.500000 0.000000 0.528131 As
0.333333 0.666667 0.503286 As
0.333333 0.166667 0.503286 As
0.833333 0.166667 0.503286 As
0.833333 0.666667 0.503286 As
0.666667 0.333333 0.478442 As
0.666667 0.833333 0.478442 As
0.166667 0.833333 0.478442 As
0.166667 0.333333 0.478442 As
0.000000 0.000000 0.453597 As
1.000000 0.500000 0.453597 As
0.500000 0.500000 0.453597 As
0.500000 0.000000 0.453597 As
0.333333 0.666667 0.428753 As
0.333333 0.166667 0.428753 As
0.833333 0.166667 0.428753 As
0.833333 0.666667 0.428753 As
0.666667 0.333333 0.403908 As
0.666667 0.833333 0.403908 As
0.166667 0.833333 0.403908 As
0.166667 0.333333 0.403908 As
0.000000 0.000000 0.379064 As
1.000000 0.500000 0.379064 As
0.500000 0.500000 0.379064 As
0.500000 0.000000 0.379064 As
0.333333 0.666667 0.354219 As
0.333333 0.166667 0.354219 As
0.833333 0.166667 0.354219 As
0.833333 0.666667 0.354219 As
0.666667 0.333333 0.329375 As
0.666667 0.833333 0.329375 As
0.166667 0.833333 0.329375 As
0.166667 0.333333 0.329375 As
0.000000 0.000000 0.304530 As
1.000000 0.500000 0.304530 As
0.500000 0.500000 0.304530 As
0.500000 0.000000 0.304530 As
0.333333 0.666667 0.279686 As
0.333333 0.166667 0.279686 As
0.833333 0.166667 0.279686 As
0.833333 0.666667 0.279686 As
0.666667 0.333333 0.254841 As
0.666667 0.833333 0.254841 As
0.166667 0.833333 0.254841 As
0.166667 0.333333 0.254841 As
0.000000 0.000000 0.229997 As
1.000000 0.500000 0.229997 As
0.500000 0.500000 0.229997 As
0.500000 0.000000 0.229997 As
0.000000 0.000000 0.220408 H
1.000000 0.500000 0.220408 H
0.500000 0.500000 0.220408 H
0.500000 0.000000 0.220408 H
