Al54 In36 As36 H12
1.0
-4.283936 -7.419994 0.000000
-4.283936 7.419994 0.000000
0.000000 0.000000 -87.763121
Al In As H
54 36 36 12
direct
0.222222 0.444444 0.544228 Al
0.222222 0.111111 0.544228 Al
0.222222 0.777778 0.544228 Al
0.888889 0.111111 0.544228 Al
0.888889 0.777778 0.544228 Al
0.888889 0.444444 0.544228 Al
0.555556 0.777778 0.544228 Al
0.555556 0.444444 0.544228 Al
0.555556 0.111111 0.544228 Al
0.444444 0.888889 0.517658 Al
0.444444 0.555556 0.517658 Al
0.444444 0.222222 0.517658 Al
0.111111 0.555556 0.517658 Al
0.111111 0.222222 0.517658 Al
0.111111 0.888889 0.517658 Al
0.777778 0.222222 0.517658 Al
0.777778 0.888889 0.517658 Al
0.777778 0.555556 0.517658 Al
0.000000 0.666667 0.491087 Al
0.000000 0.333333 0.491087 Al
0.000000 0.000000 0.491087 Al
0.666667 0.333333 0.491087 Al
0.666667 1.000000 0.491087 Al
0.666667 0.666667 0.491087 Al
0.333333 1.000000 0.491087 Al
0.333333 0.666667 0.491087 Al
0.333333 0.333333 0.491087 Al
0.222222 0.444444 0.464517 Al
0.222222 0.111111 0.464517 Al
0.222222 0.777778 0.464517 Al
0.888889 0.111111 0.464517 Al
0.888889 0.777778 0.464517 Al
0.888889 0.444444 0.464517 Al
0.555556 0.777778 0.464517 Al
0.555556 0.444444 0.464517 Al
0.555556 0.111111 0.464517 Al
0.444444 0.888889 0.437947 Al
0.444444 0.555556 0.437947 Al
0.444444 0.222222 0.437947 Al
0.111111 0.555556 0.437947 Al
0.111111 0.222222 0.437947 Al
0.111111 0.888889 0.437947 Al
0.777778 0.222222 0.437947 Al
0.777778 0.888889 0.437947 Al
0.777778 0.555556 0.437947 Al
0.000000 0.666667 0.411377 Al
0.000000 0.333333 0.411377 Al
0.000000 0.000000 0.411377 Al
0.666667 0.333333 0.411377 Al
0.666667 1.000000 0.411377 Al
0.666667 0.666667 0.411377 Al
0.333333 0.000000 0.411377 Al
0.333333 0.666667 0.411377 Al
0.333333 0.333333 0.411377 Al
0.000000 0.000000 0.358697 In
0.000000 0.500000 0.358697 In
0.500000 0.500000 0.358697 In
0.500000 1.000000 0.358697 In
0.333333 0.666667 0.318842 In
0.333333 0.166667 0.318842 In
0.833333 0.166667 0.318842 In
0.833333 0.666667 0.318842 In
0.666667 0.333333 0.278987 In
0.666667 0.833333 0.278987 In
0.166667 0.833333 0.278987 In
0.166667 0.333333 0.278987 In
0.000000 0.000000 0.239131 In
0.000000 0.500000 0.239131 In
0.500000 0.500000 0.239131 In
0.500000 1.000000 0.239131 In
0.333333 0.666667 0.199276 In
0.333333 0.166667 0.199276 In
0.833333 0.166667 0.199276 In
0.833333 0.666667 0.199276 In
0.666667 0.333333 0.159421 In
0.666667 0.833333 0.159421 In
0.166667 0.833333 0.159421 In
0.166667 0.333333 0.159421 In
0.000000 0.500000 0.119566 In
0.500000 0.500000 0.119566 In
0.500000 1.000000 0.119566 In
0.000000 0.000000 0.119566 In
0.333333 0.666667 0.079710 In
0.333333 0.166667 0.079710 In
0.833333 0.166667 0.079710 In
0.833333 0.666667 0.079710 In
0.666667 0.333333 0.039855 In
0.666667 0.833333 0.039855 In
0.166667 0.833333 0.039855 In
0.166667 0.333333 0.039855 In
0.000000 0.000000 0.388588 As
0.000000 0.500000 0.388588 As
0.500000 0.500000 0.388588 As
0.500000 1.000000 0.388588 As
0.333333 0.666667 0.348733 As
0.333333 0.166667 0.348733 As
0.833333 0.166667 0.348733 As
0.833333 0.666667 0.348733 As
0.666667 0.333333 0.308878 As
0.666667 0.833333 0.308878 As
0.166667 0.833333 0.308878 As
0.166667 0.333333 0.308878 As
0.000000 0.500000 0.269023 As
0.500000 0.500000 0.269023 As
0.500000 1.000000 0.269023 As
0.000000 0.000000 0.269023 As
0.333333 0.666667 0.229168 As
0.333333 0.166667 0.229168 As
0.833333 0.166667 0.229168 As
0.833333 0.666667 0.229168 As
0.666667 0.333333 0.189312 As
0.666667 0.833333 0.189312 As
0.166667 0.833333 0.189312 As
0.166667 0.333333 0.189312 As
0.000000 0.000000 0.149457 As
0.000000 0.500000 0.149457 As
0.500000 0.500000 0.149457 As
0.500000 1.000000 0.149457 As
0.333333 0.666667 0.109602 As
0.333333 0.166667 0.109602 As
0.833333 0.166667 0.109602 As
0.833333 0.666667 0.109602 As
0.666667 0.333333 0.069747 As
0.666667 0.833333 0.069747 As
0.166667 0.833333 0.069747 As
0.166667 0.333333 0.069747 As
0.864504 0.432252 0.033942 H
0.567748 0.135496 0.033942 H
0.567748 0.432252 0.033942 H
0.864504 0.932252 0.033942 H
0.567748 0.635496 0.033942 H
0.567748 0.932252 0.033942 H
0.364504 0.932252 0.033942 H
0.067748 0.635496 0.033942 H
0.067748 0.932252 0.033942 H
0.364504 0.432252 0.033942 H
0.067748 0.135496 0.033942 H
0.067748 0.432252 0.033942 H
