Al80 In35 As35
1.0
-5.667114 9.815730 -0.000000
-5.667114 -9.815730 0.000000
-0.000000 0.000000 28.193239
Al In As
80 35 35
direct
0.500000 1.000000 0.598219 Al
-0.000000 0.000000 0.598219 Al
0.000000 0.500000 0.598219 Al
0.500000 0.500000 0.598219 Al
0.750000 1.000000 0.598219 Al
0.250000 1.000000 0.598219 Al
0.250000 0.500000 0.598219 Al
0.750000 0.500000 0.598219 Al
0.250000 0.750000 0.598219 Al
0.750000 0.750000 0.598219 Al
0.750000 0.250000 0.598219 Al
0.250000 0.250000 0.598219 Al
0.500000 0.750000 0.598219 Al
0.000000 0.750000 0.598219 Al
0.000000 0.250000 0.598219 Al
0.500000 0.250000 0.598219 Al
0.333333 0.666667 0.680929 Al
0.833333 0.666667 0.680929 Al
0.833333 0.166667 0.680929 Al
0.333333 0.166667 0.680929 Al
0.583333 0.666667 0.680929 Al
0.083333 0.666667 0.680929 Al
0.083333 0.166667 0.680929 Al
0.583333 0.166667 0.680929 Al
0.583333 0.916667 0.680929 Al
0.083333 0.916667 0.680929 Al
0.083333 0.416667 0.680929 Al
0.583333 0.416667 0.680929 Al
0.833333 0.916667 0.680929 Al
0.333333 0.916667 0.680929 Al
0.333333 0.416667 0.680929 Al
0.833333 0.416667 0.680929 Al
0.666667 0.833333 0.763640 Al
0.166667 0.833333 0.763640 Al
0.166667 0.333333 0.763640 Al
0.666667 0.333333 0.763640 Al
0.416667 0.833333 0.763640 Al
0.916667 0.833333 0.763640 Al
0.916667 0.333333 0.763640 Al
0.416667 0.333333 0.763640 Al
0.416667 0.583333 0.763640 Al
0.916667 0.583333 0.763640 Al
0.916667 0.083333 0.763640 Al
0.416667 0.083333 0.763640 Al
0.166667 0.583333 0.763640 Al
0.666667 0.583333 0.763640 Al
0.666667 0.083333 0.763640 Al
0.166667 0.083333 0.763640 Al
0.500000 1.000000 0.846350 Al
-0.000000 0.000000 0.846350 Al
0.000000 0.500000 0.846350 Al
0.500000 0.500000 0.846350 Al
0.750000 1.000000 0.846350 Al
0.250000 1.000000 0.846350 Al
0.250000 0.500000 0.846350 Al
0.750000 0.500000 0.846350 Al
0.250000 0.750000 0.846350 Al
0.750000 0.750000 0.846350 Al
0.750000 0.250000 0.846350 Al
0.250000 0.250000 0.846350 Al
0.500000 0.750000 0.846350 Al
0.000000 0.750000 0.846350 Al
0.000000 0.250000 0.846350 Al
0.500000 0.250000 0.846350 Al
0.333333 0.666667 0.929061 Al
0.833333 0.666667 0.929061 Al
0.833333 0.166667 0.929061 Al
0.333333 0.166667 0.929061 Al
0.583333 0.666667 0.929061 Al
0.083333 0.666667 0.929061 Al
0.083333 0.166667 0.929061 Al
0.583333 0.166667 0.929061 Al
0.583333 0.916667 0.929061 Al
0.083333 0.916667 0.929061 Al
0.083333 0.416667 0.929061 Al
0.583333 0.416667 0.929061 Al
0.833333 0.916667 0.929061 Al
0.333333 0.916667 0.929061 Al
0.333333 0.416667 0.929061 Al
0.833333 0.416667 0.929061 Al
0.142857 0.428571 0.031016 In
0.285714 0.857143 0.031016 In
0.428571 0.285714 0.031016 In
0.571429 0.714286 0.031016 In
0.714286 0.142857 0.031016 In
0.857143 0.571429 0.031016 In
0.000000 -0.000000 0.031016 In
0.047619 0.809524 0.155082 In
0.190476 0.238095 0.155082 In
0.333333 0.666667 0.155082 In
0.476190 0.095238 0.155082 In
0.619048 0.523810 0.155082 In
0.761905 0.952381 0.155082 In
0.904762 0.380952 0.155082 In
0.523810 0.904762 0.279148 In
0.666667 0.333333 0.279148 In
0.809524 0.761905 0.279148 In
0.952381 0.190476 0.279148 In
0.095238 0.619048 0.279148 In
0.238095 0.047619 0.279148 In
0.380952 0.476190 0.279148 In
0.142857 0.428571 0.403214 In
0.285714 0.857143 0.403214 In
0.428571 0.285714 0.403214 In
0.571429 0.714286 0.403214 In
0.714286 0.142857 0.403214 In
0.857143 0.571429 0.403214 In
0.000000 -0.000000 0.403214 In
0.047619 0.809524 0.527280 In
0.190476 0.238095 0.527280 In
0.333333 0.666667 0.527280 In
0.476190 0.095238 0.527280 In
0.619048 0.523810 0.527280 In
0.761905 0.952381 0.527280 In
0.904762 0.380952 0.527280 In
0.523810 0.904762 0.000000 As
0.666667 0.333333 0.000000 As
0.809524 0.761905 0.000000 As
0.952381 0.190476 0.000000 As
0.095238 0.619048 0.000000 As
0.238095 0.047619 0.000000 As
0.380952 0.476190 0.000000 As
0.142857 0.428571 0.124066 As
0.285714 0.857143 0.124066 As
0.428571 0.285714 0.124066 As
0.571429 0.714286 0.124066 As
0.714286 0.142857 0.124066 As
0.857143 0.571429 0.124066 As
0.000000 -0.000000 0.124066 As
0.047619 0.809524 0.248132 As
0.190476 0.238095 0.248132 As
0.333333 0.666667 0.248132 As
0.476190 0.095238 0.248132 As
0.619048 0.523810 0.248132 As
0.761905 0.952381 0.248132 As
0.904762 0.380952 0.248132 As
0.523810 0.904762 0.372198 As
0.666667 0.333333 0.372198 As
0.809524 0.761905 0.372198 As
0.952381 0.190476 0.372198 As
0.095238 0.619048 0.372198 As
0.238095 0.047619 0.372198 As
0.380952 0.476190 0.372198 As
0.142857 0.428571 0.496263 As
0.285714 0.857143 0.496263 As
0.428571 0.285714 0.496263 As
0.571429 0.714286 0.496263 As
0.714286 0.142857 0.496263 As
0.857143 0.571429 0.496263 As
0.000000 -0.000000 0.496263 As
