Al72 In64 As64 H12
1.0
-4.283936 -7.419994 0.000000
-4.283936 7.419994 0.000000
0.000000 0.000000 -116.911607
Al In As H
72 64 64 12
direct
0.444444 0.888889 0.657861 Al
0.444444 0.555556 0.657861 Al
0.444444 0.222222 0.657861 Al
0.111111 0.555556 0.657861 Al
0.111111 0.222222 0.657861 Al
0.111111 0.888889 0.657861 Al
0.777778 0.222222 0.657861 Al
0.777778 0.888889 0.657861 Al
0.777778 0.555556 0.657861 Al
0.000000 0.666667 0.637916 Al
1.000000 0.333333 0.637916 Al
0.000000 0.000000 0.637916 Al
0.666667 0.333333 0.637916 Al
0.666667 0.000000 0.637916 Al
0.666667 0.666667 0.637916 Al
0.333333 0.000000 0.637916 Al
0.333333 0.666667 0.637916 Al
0.333333 0.333333 0.637916 Al
0.222222 0.444444 0.617970 Al
0.222222 0.111111 0.617970 Al
0.222222 0.777778 0.617970 Al
0.888889 0.111111 0.617970 Al
0.888889 0.777778 0.617970 Al
0.888889 0.444444 0.617970 Al
0.555556 0.777778 0.617970 Al
0.555556 0.444444 0.617970 Al
0.555556 0.111111 0.617970 Al
0.444444 0.888889 0.598024 Al
0.444444 0.555556 0.598024 Al
0.444444 0.222222 0.598024 Al
0.111111 0.555556 0.598024 Al
0.111111 0.222222 0.598024 Al
0.111111 0.888889 0.598024 Al
0.777778 0.222222 0.598024 Al
0.777778 0.888889 0.598024 Al
0.777778 0.555556 0.598024 Al
0.666667 0.333333 0.578079 Al
0.666667 0.000000 0.578079 Al
0.666667 0.666667 0.578079 Al
0.333333 0.000000 0.578079 Al
0.333333 0.666667 0.578079 Al
0.333333 0.333333 0.578079 Al
0.000000 0.666667 0.578079 Al
0.000000 0.333333 0.578079 Al
0.000000 0.000000 0.578079 Al
0.222222 0.444444 0.558133 Al
0.222222 0.111111 0.558133 Al
0.222222 0.777778 0.558133 Al
0.888889 0.111111 0.558133 Al
0.888889 0.777778 0.558133 Al
0.888889 0.444444 0.558133 Al
0.555556 0.777778 0.558133 Al
0.555556 0.444444 0.558133 Al
0.555556 0.111111 0.558133 Al
0.444444 0.888889 0.538187 Al
0.444444 0.555556 0.538187 Al
0.444444 0.222222 0.538187 Al
0.111111 0.555556 0.538187 Al
0.111111 0.222222 0.538187 Al
0.111111 0.888889 0.538187 Al
0.777778 0.222222 0.538187 Al
0.777778 0.888889 0.538187 Al
0.777778 0.555556 0.538187 Al
1.000000 0.666667 0.518242 Al
1.000000 0.333333 0.518242 Al
0.000000 0.000000 0.518242 Al
0.666667 0.333333 0.518242 Al
0.666667 0.000000 0.518242 Al
0.666667 0.666667 0.518242 Al
0.333333 0.000000 0.518242 Al
0.333333 0.666667 0.518242 Al
0.333333 0.333333 0.518242 Al
0.333333 0.666667 0.478696 In
0.333333 0.166667 0.478696 In
0.833333 0.166667 0.478696 In
0.833333 0.666667 0.478696 In
0.666667 0.333333 0.448777 In
0.666667 0.833333 0.448777 In
0.166667 0.833333 0.448777 In
0.166667 0.333333 0.448777 In
0.000000 0.000000 0.418859 In
0.000000 0.500000 0.418859 In
0.500000 0.500000 0.418859 In
0.500000 1.000000 0.418859 In
0.333333 0.666667 0.388940 In
0.333333 0.166667 0.388940 In
0.833333 0.166667 0.388940 In
0.833333 0.666667 0.388940 In
0.666667 0.333333 0.359022 In
0.666667 0.833333 0.359022 In
0.166667 0.833333 0.359022 In
0.166667 0.333333 0.359022 In
0.000000 0.000000 0.329103 In
0.000000 0.500000 0.329103 In
0.500000 0.500000 0.329103 In
0.500000 1.000000 0.329103 In
0.333333 0.666667 0.299185 In
0.333333 0.166667 0.299185 In
0.833333 0.166667 0.299185 In
0.833333 0.666667 0.299185 In
0.666667 0.333333 0.269266 In
0.666667 0.833333 0.269266 In
0.166667 0.833333 0.269266 In
0.166667 0.333333 0.269266 In
0.000000 0.000000 0.239348 In
0.000000 0.500000 0.239348 In
0.500000 0.500000 0.239348 In
0.500000 1.000000 0.239348 In
0.333333 0.666667 0.209429 In
0.333333 0.166667 0.209429 In
0.833333 0.166667 0.209429 In
0.833333 0.666667 0.209429 In
0.666667 0.333333 0.179511 In
0.666667 0.833333 0.179511 In
0.166667 0.833333 0.179511 In
0.166667 0.333333 0.179511 In
0.000000 0.000000 0.149592 In
0.000000 0.500000 0.149592 In
0.500000 0.500000 0.149592 In
0.500000 1.000000 0.149592 In
0.333333 0.666667 0.119674 In
0.333333 0.166667 0.119674 In
0.833333 0.166667 0.119674 In
0.833333 0.666667 0.119674 In
0.666667 0.333333 0.089755 In
0.666667 0.833333 0.089755 In
0.166667 0.833333 0.089755 In
0.166667 0.333333 0.089755 In
0.000000 0.000000 0.059837 In
1.000000 0.500000 0.059837 In
0.500000 0.500000 0.059837 In
0.500000 0.000000 0.059837 In
0.333333 0.666667 0.029918 In
0.333333 0.166667 0.029918 In
0.833333 0.166667 0.029918 In
0.833333 0.666667 0.029918 In
0.333333 0.666667 0.501135 As
0.333333 0.166667 0.501135 As
0.833333 0.166667 0.501135 As
0.833333 0.666667 0.501135 As
0.666667 0.333333 0.471216 As
0.666667 0.833333 0.471216 As
0.166667 0.833333 0.471216 As
0.166667 0.333333 0.471216 As
0.000000 0.000000 0.441298 As
1.000000 0.500000 0.441298 As
0.500000 0.500000 0.441298 As
0.500000 0.000000 0.441298 As
0.333333 0.666667 0.411379 As
0.333333 0.166667 0.411379 As
0.833333 0.166667 0.411379 As
0.833333 0.666667 0.411379 As
0.666667 0.333333 0.381461 As
0.666667 0.833333 0.381461 As
0.166667 0.833333 0.381461 As
0.166667 0.333333 0.381461 As
0.000000 0.000000 0.351542 As
1.000000 0.500000 0.351542 As
0.500000 0.500000 0.351542 As
0.500000 0.000000 0.351542 As
0.333333 0.666667 0.321624 As
0.333333 0.166667 0.321624 As
0.833333 0.166667 0.321624 As
0.833333 0.666667 0.321624 As
0.666667 0.333333 0.291705 As
0.666667 0.833333 0.291705 As
0.166667 0.833333 0.291705 As
0.166667 0.333333 0.291705 As
0.000000 0.000000 0.261787 As
0.000000 0.500000 0.261787 As
0.500000 0.500000 0.261787 As
0.500000 1.000000 0.261787 As
0.333333 0.666667 0.231868 As
0.333333 0.166667 0.231868 As
0.833333 0.166667 0.231868 As
0.833333 0.666667 0.231868 As
0.666667 0.833333 0.201950 As
0.166667 0.833333 0.201950 As
0.166667 0.333333 0.201950 As
0.666667 0.333333 0.201950 As
0.000000 0.000000 0.172031 As
1.000000 0.500000 0.172031 As
0.500000 0.500000 0.172031 As
0.500000 0.000000 0.172031 As
0.333333 0.666667 0.142113 As
0.333333 0.166667 0.142113 As
0.833333 0.166667 0.142113 As
0.833333 0.666667 0.142113 As
0.666667 0.333333 0.112194 As
0.666667 0.833333 0.112194 As
0.166667 0.833333 0.112194 As
0.166667 0.333333 0.112194 As
0.000000 0.000000 0.082276 As
1.000000 0.500000 0.082276 As
0.500000 0.500000 0.082276 As
0.500000 0.000000 0.082276 As
0.333333 0.666667 0.052357 As
0.333333 0.166667 0.052357 As
0.833333 0.166667 0.052357 As
0.833333 0.666667 0.052357 As
0.531171 0.765585 0.025479 H
0.234415 0.468829 0.025479 H
0.234415 0.765585 0.025479 H
0.531171 0.265585 0.025479 H
0.234415 0.968829 0.025479 H
0.234415 0.265585 0.025479 H
0.031171 0.265585 0.025479 H
0.734415 0.968829 0.025479 H
0.734415 0.265585 0.025479 H
0.031171 0.765585 0.025479 H
0.734415 0.468829 0.025479 H
0.734415 0.765585 0.025479 H
