Al63 In72 As76
1.0
-4.283936 -7.419994 0.000000
-4.283936 7.419994 0.000000
0.000000 0.000000 -80.952004
Al In As
63 72 76
direct
1.000000 0.666667 0.802460 Al
0.000000 0.333333 0.802460 Al
0.000000 0.000000 0.802460 Al
0.666667 0.333333 0.802460 Al
0.666667 0.000000 0.802460 Al
0.666667 0.666667 0.802460 Al
0.333333 0.000000 0.802460 Al
0.333333 0.666667 0.802460 Al
0.333333 0.333333 0.802460 Al
0.444444 0.888889 0.831266 Al
0.444444 0.555556 0.831266 Al
0.444444 0.222222 0.831266 Al
0.111111 0.555556 0.831266 Al
0.111111 0.222222 0.831266 Al
0.111111 0.888889 0.831266 Al
0.777778 0.222222 0.831266 Al
0.777778 0.888889 0.831266 Al
0.777778 0.555556 0.831266 Al
0.222222 0.444444 0.860071 Al
0.222222 0.111111 0.860071 Al
0.222222 0.777778 0.860071 Al
0.888889 0.111111 0.860071 Al
0.888889 0.777778 0.860071 Al
0.888889 0.444444 0.860071 Al
0.555556 0.777778 0.860071 Al
0.555556 0.444444 0.860071 Al
0.555556 0.111111 0.860071 Al
0.666667 0.333333 0.888877 Al
0.666667 0.000000 0.888877 Al
0.666667 0.666667 0.888877 Al
0.333333 0.000000 0.888877 Al
0.333333 0.666667 0.888877 Al
0.333333 0.333333 0.888877 Al
1.000000 0.666667 0.888877 Al
1.000000 0.333333 0.888877 Al
0.000000 0.000000 0.888877 Al
0.444444 0.888889 0.917683 Al
0.444444 0.555556 0.917683 Al
0.444444 0.222222 0.917683 Al
0.111111 0.555556 0.917683 Al
0.111111 0.222222 0.917683 Al
0.111111 0.888889 0.917683 Al
0.777778 0.222222 0.917683 Al
0.777778 0.888889 0.917683 Al
0.777778 0.555556 0.917683 Al
0.222222 0.444444 0.946488 Al
0.222222 0.111111 0.946488 Al
0.222222 0.777778 0.946488 Al
0.888889 0.111111 0.946488 Al
0.888889 0.777778 0.946488 Al
0.888889 0.444444 0.946488 Al
0.555556 0.777778 0.946488 Al
0.555556 0.444444 0.946488 Al
0.555556 0.111111 0.946488 Al
0.000000 0.666667 0.975294 Al
0.000000 0.333333 0.975294 Al
0.000000 0.000000 0.975294 Al
0.666667 0.333333 0.975294 Al
0.666667 1.000000 0.975294 Al
0.666667 0.666667 0.975294 Al
0.333333 1.000000 0.975294 Al
0.333333 0.666667 0.975294 Al
0.333333 0.333333 0.975294 Al
0.666667 0.333333 0.010802 In
0.666667 0.833333 0.010802 In
0.166667 0.833333 0.010802 In
0.166667 0.333333 0.010802 In
0.333333 0.666667 0.054011 In
0.333333 0.166667 0.054011 In
0.833333 0.166667 0.054011 In
0.833333 0.666667 0.054011 In
0.000000 0.000000 0.097219 In
0.000000 0.500000 0.097219 In
0.500000 0.500000 0.097219 In
0.500000 1.000000 0.097219 In
0.666667 0.333333 0.140428 In
0.666667 0.833333 0.140428 In
0.166667 0.833333 0.140428 In
0.166667 0.333333 0.140428 In
0.333333 0.666667 0.183636 In
0.333333 0.166667 0.183636 In
0.833333 0.166667 0.183636 In
0.833333 0.666667 0.183636 In
0.000000 0.000000 0.226845 In
0.000000 0.500000 0.226845 In
0.500000 0.500000 0.226845 In
0.500000 1.000000 0.226845 In
0.666667 0.333333 0.270053 In
0.666667 0.833333 0.270053 In
0.166667 0.833333 0.270053 In
0.166667 0.333333 0.270053 In
0.333333 0.666667 0.313262 In
0.333333 0.166667 0.313262 In
0.833333 0.166667 0.313262 In
0.833333 0.666667 0.313262 In
0.000000 0.000000 0.356471 In
0.000000 0.500000 0.356471 In
0.500000 0.500000 0.356471 In
0.500000 1.000000 0.356471 In
0.666667 0.333333 0.399679 In
0.666667 0.833333 0.399679 In
0.166667 0.833333 0.399679 In
0.166667 0.333333 0.399679 In
0.333333 0.666667 0.442888 In
0.333333 0.166667 0.442888 In
0.833333 0.166667 0.442888 In
0.833333 0.666667 0.442888 In
0.000000 0.000000 0.486096 In
0.000000 0.500000 0.486096 In
0.500000 0.500000 0.486096 In
0.500000 1.000000 0.486096 In
0.666667 0.333333 0.529305 In
0.666667 0.833333 0.529305 In
0.166667 0.833333 0.529305 In
0.166667 0.333333 0.529305 In
0.333333 0.666667 0.572513 In
0.333333 0.166667 0.572513 In
0.833333 0.166667 0.572513 In
0.833333 0.666667 0.572513 In
0.000000 0.000000 0.615722 In
0.000000 0.500000 0.615722 In
0.500000 0.500000 0.615722 In
0.500000 1.000000 0.615722 In
0.666667 0.333333 0.658930 In
0.666667 0.833333 0.658930 In
0.166667 0.833333 0.658930 In
0.166667 0.333333 0.658930 In
0.333333 0.666667 0.702139 In
0.333333 0.166667 0.702139 In
0.833333 0.166667 0.702139 In
0.833333 0.666667 0.702139 In
0.000000 0.000000 0.745348 In
0.000000 0.500000 0.745348 In
0.500000 0.500000 0.745348 In
0.500000 1.000000 0.745348 In
0.000000 0.000000 0.000000 As
0.000000 0.500000 0.000000 As
0.500000 0.500000 0.000000 As
0.500000 1.000000 0.000000 As
0.666667 0.333333 0.043209 As
0.666667 0.833333 0.043209 As
0.166667 0.833333 0.043209 As
0.166667 0.333333 0.043209 As
0.333333 0.666667 0.086417 As
0.333333 0.166667 0.086417 As
0.833333 0.166667 0.086417 As
0.833333 0.666667 0.086417 As
0.000000 0.000000 0.129626 As
0.000000 0.500000 0.129626 As
0.500000 0.500000 0.129626 As
0.500000 1.000000 0.129626 As
0.666667 0.333333 0.172834 As
0.666667 0.833333 0.172834 As
0.166667 0.833333 0.172834 As
0.166667 0.333333 0.172834 As
0.333333 0.666667 0.216043 As
0.333333 0.166667 0.216043 As
0.833333 0.166667 0.216043 As
0.833333 0.666667 0.216043 As
0.000000 0.000000 0.259251 As
0.000000 0.500000 0.259251 As
0.500000 0.500000 0.259251 As
0.500000 1.000000 0.259251 As
0.666667 0.333333 0.302460 As
0.666667 0.833333 0.302460 As
0.166667 0.833333 0.302460 As
0.166667 0.333333 0.302460 As
0.333333 0.666667 0.345668 As
0.333333 0.166667 0.345668 As
0.833333 0.166667 0.345668 As
0.833333 0.666667 0.345668 As
0.000000 0.000000 0.388877 As
0.000000 0.500000 0.388877 As
0.500000 0.500000 0.388877 As
0.500000 1.000000 0.388877 As
0.666667 0.333333 0.432086 As
0.666667 0.833333 0.432086 As
0.166667 0.833333 0.432086 As
0.166667 0.333333 0.432086 As
0.333333 0.666667 0.475294 As
0.333333 0.166667 0.475294 As
0.833333 0.166667 0.475294 As
0.833333 0.666667 0.475294 As
0.000000 0.000000 0.518503 As
0.000000 0.500000 0.518503 As
0.500000 0.500000 0.518503 As
0.500000 1.000000 0.518503 As
0.666667 0.333333 0.561711 As
0.666667 0.833333 0.561711 As
0.166667 0.833333 0.561711 As
0.166667 0.333333 0.561711 As
0.333333 0.666667 0.604920 As
0.333333 0.166667 0.604920 As
0.833333 0.166667 0.604920 As
0.833333 0.666667 0.604920 As
0.000000 0.000000 0.648128 As
0.000000 0.500000 0.648128 As
0.500000 0.500000 0.648128 As
0.500000 1.000000 0.648128 As
0.666667 0.333333 0.691337 As
0.666667 0.833333 0.691337 As
0.166667 0.833333 0.691337 As
0.166667 0.333333 0.691337 As
0.333333 0.666667 0.734545 As
0.333333 0.166667 0.734545 As
0.833333 0.166667 0.734545 As
0.833333 0.666667 0.734545 As
0.000000 0.000000 0.777754 As
0.000000 0.500000 0.777754 As
0.500000 0.500000 0.777754 As
0.500000 1.000000 0.777754 As
