Al63 In84 As88
1.0
-4.283936 -7.419994 0.000000
-4.283936 7.419994 0.000000
0.000000 0.000000 -91.445460
Al In As
63 84 88
direct
1.000000 0.666667 0.825128 Al
0.000000 0.333333 0.825128 Al
0.000000 0.000000 0.825128 Al
0.666667 0.333333 0.825128 Al
0.666667 0.000000 0.825128 Al
0.666667 0.666667 0.825128 Al
0.333333 0.000000 0.825128 Al
0.333333 0.666667 0.825128 Al
0.333333 0.333333 0.825128 Al
0.444444 0.888889 0.850628 Al
0.444444 0.555556 0.850628 Al
0.444444 0.222222 0.850628 Al
0.111111 0.555556 0.850628 Al
0.111111 0.222222 0.850628 Al
0.111111 0.888889 0.850628 Al
0.777778 0.222222 0.850628 Al
0.777778 0.888889 0.850628 Al
0.777778 0.555556 0.850628 Al
0.222222 0.444444 0.876128 Al
0.222222 0.111111 0.876128 Al
0.222222 0.777778 0.876128 Al
0.888889 0.111111 0.876128 Al
0.888889 0.777778 0.876128 Al
0.888889 0.444444 0.876128 Al
0.555556 0.777778 0.876128 Al
0.555556 0.444444 0.876128 Al
0.555556 0.111111 0.876128 Al
0.666667 0.333333 0.901628 Al
0.666667 0.000000 0.901628 Al
0.666667 0.666667 0.901628 Al
0.333333 0.000000 0.901628 Al
0.333333 0.666667 0.901628 Al
0.333333 0.333333 0.901628 Al
1.000000 0.666667 0.901628 Al
1.000000 0.333333 0.901628 Al
0.000000 0.000000 0.901628 Al
0.444444 0.888889 0.927129 Al
0.444444 0.555556 0.927129 Al
0.444444 0.222222 0.927129 Al
0.111111 0.555556 0.927129 Al
0.111111 0.222222 0.927129 Al
0.111111 0.888889 0.927129 Al
0.777778 0.222222 0.927129 Al
0.777778 0.888889 0.927129 Al
0.777778 0.555556 0.927129 Al
0.222222 0.444444 0.952629 Al
0.222222 0.111111 0.952629 Al
0.222222 0.777778 0.952629 Al
0.888889 0.111111 0.952629 Al
0.888889 0.777778 0.952629 Al
0.888889 0.444444 0.952629 Al
0.555556 0.777778 0.952629 Al
0.555556 0.444444 0.952629 Al
0.555556 0.111111 0.952629 Al
0.000000 0.666667 0.978129 Al
0.000000 0.333333 0.978129 Al
0.000000 0.000000 0.978129 Al
0.666667 0.333333 0.978129 Al
0.666667 1.000000 0.978129 Al
0.666667 0.666667 0.978129 Al
0.333333 1.000000 0.978129 Al
0.333333 0.666667 0.978129 Al
0.333333 0.333333 0.978129 Al
0.666667 0.333333 0.009563 In
0.666667 0.833333 0.009563 In
0.166667 0.833333 0.009563 In
0.166667 0.333333 0.009563 In
0.333333 0.666667 0.047813 In
0.333333 0.166667 0.047813 In
0.833333 0.166667 0.047813 In
0.833333 0.666667 0.047813 In
0.000000 0.000000 0.086063 In
0.000000 0.500000 0.086063 In
0.500000 0.500000 0.086063 In
0.500000 1.000000 0.086063 In
0.666667 0.333333 0.124314 In
0.666667 0.833333 0.124314 In
0.166667 0.833333 0.124314 In
0.166667 0.333333 0.124314 In
0.333333 0.666667 0.162564 In
0.333333 0.166667 0.162564 In
0.833333 0.166667 0.162564 In
0.833333 0.666667 0.162564 In
0.000000 0.000000 0.200814 In
1.000000 0.500000 0.200814 In
0.500000 0.500000 0.200814 In
0.500000 0.000000 0.200814 In
0.666667 0.333333 0.239065 In
0.666667 0.833333 0.239065 In
0.166667 0.833333 0.239065 In
0.166667 0.333333 0.239065 In
0.333333 0.666667 0.277315 In
0.333333 0.166667 0.277315 In
0.833333 0.166667 0.277315 In
0.833333 0.666667 0.277315 In
0.000000 0.000000 0.315565 In
1.000000 0.500000 0.315565 In
0.500000 0.500000 0.315565 In
0.500000 0.000000 0.315565 In
0.666667 0.333333 0.353816 In
0.666667 0.833333 0.353816 In
0.166667 0.833333 0.353816 In
0.166667 0.333333 0.353816 In
0.333333 0.666667 0.392066 In
0.333333 0.166667 0.392066 In
0.833333 0.166667 0.392066 In
0.833333 0.666667 0.392066 In
0.000000 0.000000 0.430316 In
0.000000 0.500000 0.430316 In
0.500000 0.500000 0.430316 In
0.500000 1.000000 0.430316 In
0.666667 0.333333 0.468567 In
0.666667 0.833333 0.468567 In
0.166667 0.833333 0.468567 In
0.166667 0.333333 0.468567 In
0.333333 0.666667 0.506817 In
0.333333 0.166667 0.506817 In
0.833333 0.166667 0.506817 In
0.833333 0.666667 0.506817 In
0.000000 0.000000 0.545067 In
0.000000 0.500000 0.545067 In
0.500000 0.500000 0.545067 In
0.500000 1.000000 0.545067 In
0.666667 0.333333 0.583318 In
0.666667 0.833333 0.583318 In
0.166667 0.833333 0.583318 In
0.166667 0.333333 0.583318 In
0.333333 0.666667 0.621568 In
0.333333 0.166667 0.621568 In
0.833333 0.166667 0.621568 In
0.833333 0.666667 0.621568 In
0.000000 0.000000 0.659818 In
0.000000 0.500000 0.659818 In
0.500000 0.500000 0.659818 In
0.500000 1.000000 0.659818 In
0.666667 0.333333 0.698068 In
0.666667 0.833333 0.698068 In
0.166667 0.833333 0.698068 In
0.166667 0.333333 0.698068 In
0.333333 0.666667 0.736319 In
0.333333 0.166667 0.736319 In
0.833333 0.166667 0.736319 In
0.833333 0.666667 0.736319 In
0.000000 0.000000 0.774569 In
0.000000 0.500000 0.774569 In
0.500000 0.500000 0.774569 In
0.500000 1.000000 0.774569 In
0.000000 0.000000 0.000000 As
1.000000 0.500000 0.000000 As
0.500000 0.500000 0.000000 As
0.500000 0.000000 0.000000 As
0.666667 0.333333 0.038250 As
0.666667 0.833333 0.038250 As
0.166667 0.833333 0.038250 As
0.166667 0.333333 0.038250 As
0.333333 0.666667 0.076501 As
0.333333 0.166667 0.076501 As
0.833333 0.166667 0.076501 As
0.833333 0.666667 0.076501 As
0.000000 0.000000 0.114751 As
0.000000 0.500000 0.114751 As
0.500000 0.500000 0.114751 As
0.500000 1.000000 0.114751 As
0.666667 0.333333 0.153001 As
0.666667 0.833333 0.153001 As
0.166667 0.833333 0.153001 As
0.166667 0.333333 0.153001 As
0.333333 0.666667 0.191252 As
0.333333 0.166667 0.191252 As
0.833333 0.166667 0.191252 As
0.833333 0.666667 0.191252 As
0.000000 0.000000 0.229502 As
1.000000 0.500000 0.229502 As
0.500000 0.500000 0.229502 As
0.500000 0.000000 0.229502 As
0.666667 0.333333 0.267752 As
0.666667 0.833333 0.267752 As
0.166667 0.833333 0.267752 As
0.166667 0.333333 0.267752 As
0.333333 0.666667 0.306003 As
0.333333 0.166667 0.306003 As
0.833333 0.166667 0.306003 As
0.833333 0.666667 0.306003 As
0.000000 0.000000 0.344253 As
1.000000 0.500000 0.344253 As
0.500000 0.500000 0.344253 As
0.500000 0.000000 0.344253 As
0.666667 0.333333 0.382503 As
0.666667 0.833333 0.382503 As
0.166667 0.833333 0.382503 As
0.166667 0.333333 0.382503 As
0.333333 0.666667 0.420754 As
0.333333 0.166667 0.420754 As
0.833333 0.166667 0.420754 As
0.833333 0.666667 0.420754 As
0.000000 0.000000 0.459004 As
1.000000 0.500000 0.459004 As
0.500000 0.500000 0.459004 As
0.500000 0.000000 0.459004 As
0.666667 0.333333 0.497254 As
0.666667 0.833333 0.497254 As
0.166667 0.833333 0.497254 As
0.166667 0.333333 0.497254 As
0.333333 0.666667 0.535505 As
0.333333 0.166667 0.535505 As
0.833333 0.166667 0.535505 As
0.833333 0.666667 0.535505 As
0.000000 0.000000 0.573755 As
1.000000 0.500000 0.573755 As
0.500000 0.500000 0.573755 As
0.500000 0.000000 0.573755 As
0.666667 0.333333 0.612005 As
0.666667 0.833333 0.612005 As
0.166667 0.833333 0.612005 As
0.166667 0.333333 0.612005 As
0.333333 0.666667 0.650256 As
0.333333 0.166667 0.650256 As
0.833333 0.166667 0.650256 As
0.833333 0.666667 0.650256 As
0.000000 0.000000 0.688506 As
1.000000 0.500000 0.688506 As
0.500000 0.500000 0.688506 As
0.500000 0.000000 0.688506 As
0.666667 0.333333 0.726756 As
0.666667 0.833333 0.726756 As
0.166667 0.833333 0.726756 As
0.166667 0.333333 0.726756 As
0.333333 0.666667 0.765007 As
0.333333 0.166667 0.765007 As
0.833333 0.166667 0.765007 As
0.833333 0.666667 0.765007 As
0.000000 0.000000 0.803257 As
0.000000 0.500000 0.803257 As
0.500000 0.500000 0.803257 As
0.500000 1.000000 0.803257 As
