Al35 In15 As15
1.0
-3.709997 -6.425904 0.000000
-3.709997 6.425904 0.000000
0.000000 0.000000 -28.193239
Al In As
35 15 15
direct
0.857143 0.285714 0.598219 Al
0.714286 0.571429 0.598219 Al
0.571429 0.857143 0.598219 Al
0.428571 0.142857 0.598219 Al
0.285714 0.428571 0.598219 Al
0.142857 0.714286 0.598219 Al
0.000000 0.000000 0.598219 Al
0.761905 0.809524 0.680929 Al
0.619048 0.095238 0.680929 Al
0.476190 0.380952 0.680929 Al
0.333333 0.666667 0.680929 Al
0.190476 0.952381 0.680929 Al
0.047619 0.238095 0.680929 Al
0.904762 0.523810 0.680929 Al
0.380952 0.904762 0.763640 Al
0.238095 0.190476 0.763640 Al
0.095238 0.476190 0.763640 Al
0.952381 0.761905 0.763640 Al
0.809524 0.047619 0.763640 Al
0.666667 0.333333 0.763640 Al
0.523810 0.619048 0.763640 Al
0.857143 0.285714 0.846350 Al
0.714286 0.571429 0.846350 Al
0.571429 0.857143 0.846350 Al
0.428571 0.142857 0.846350 Al
0.285714 0.428571 0.846350 Al
0.142857 0.714286 0.846350 Al
0.000000 0.000000 0.846350 Al
0.761905 0.809524 0.929061 Al
0.619048 0.095238 0.929061 Al
0.476190 0.380952 0.929061 Al
0.333333 0.666667 0.929061 Al
0.190476 0.952381 0.929061 Al
0.047619 0.238095 0.929061 Al
0.904762 0.523810 0.929061 Al
0.333333 0.666667 0.031016 In
0.666667 0.333333 0.031016 In
0.000000 0.000000 0.031016 In
0.333333 1.000000 0.155082 In
0.666667 0.666667 0.155082 In
0.000000 0.333333 0.155082 In
0.666667 1.000000 0.279148 In
0.000000 0.666667 0.279148 In
0.333333 0.333333 0.279148 In
0.333333 0.666667 0.403214 In
0.666667 0.333333 0.403214 In
0.000000 0.000000 0.403214 In
0.333333 1.000000 0.527280 In
0.666667 0.666667 0.527280 In
0.000000 0.333333 0.527280 In
0.666667 1.000000 0.000000 As
0.000000 0.666667 0.000000 As
0.333333 0.333333 0.000000 As
0.333333 0.666667 0.124066 As
0.666667 0.333333 0.124066 As
0.000000 0.000000 0.124066 As
0.333333 1.000000 0.248132 As
0.666667 0.666667 0.248132 As
0.000000 0.333333 0.248132 As
0.666667 1.000000 0.372198 As
0.000000 0.666667 0.372198 As
0.333333 0.333333 0.372198 As
0.333333 0.666667 0.496263 As
0.666667 0.333333 0.496263 As
0.000000 0.000000 0.496263 As
