Al63 In60 As64
1.0
-4.283936 -7.419994 0.000000
-4.283936 7.419994 0.000000
0.000000 0.000000 -70.458547
Al In As
63 60 64
direct
1.000000 0.666667 0.773040 Al
1.000000 0.333333 0.773040 Al
0.000000 0.000000 0.773040 Al
0.666667 0.333333 0.773040 Al
0.666667 0.000000 0.773040 Al
0.666667 0.666667 0.773040 Al
0.333333 0.000000 0.773040 Al
0.333333 0.666667 0.773040 Al
0.333333 0.333333 0.773040 Al
0.444444 0.888889 0.806136 Al
0.444444 0.555556 0.806136 Al
0.444444 0.222222 0.806136 Al
0.111111 0.555556 0.806136 Al
0.111111 0.222222 0.806136 Al
0.111111 0.888889 0.806136 Al
0.777778 0.222222 0.806136 Al
0.777778 0.888889 0.806136 Al
0.777778 0.555556 0.806136 Al
0.222222 0.444444 0.839232 Al
0.222222 0.111111 0.839232 Al
0.222222 0.777778 0.839232 Al
0.888889 0.111111 0.839232 Al
0.888889 0.777778 0.839232 Al
0.888889 0.444444 0.839232 Al
0.555556 0.777778 0.839232 Al
0.555556 0.444444 0.839232 Al
0.555556 0.111111 0.839232 Al
0.666667 0.333333 0.872327 Al
0.666667 0.000000 0.872327 Al
0.666667 0.666667 0.872327 Al
0.333333 0.000000 0.872327 Al
0.333333 0.666667 0.872327 Al
0.333333 0.333333 0.872327 Al
0.000000 0.666667 0.872327 Al
0.000000 0.333333 0.872327 Al
0.000000 0.000000 0.872327 Al
0.444444 0.888889 0.905423 Al
0.444444 0.555556 0.905423 Al
0.444444 0.222222 0.905423 Al
0.111111 0.555556 0.905423 Al
0.111111 0.222222 0.905423 Al
0.111111 0.888889 0.905423 Al
0.777778 0.222222 0.905423 Al
0.777778 0.888889 0.905423 Al
0.777778 0.555556 0.905423 Al
0.222222 0.444444 0.938519 Al
0.222222 0.111111 0.938519 Al
0.222222 0.777778 0.938519 Al
0.888889 0.111111 0.938519 Al
0.888889 0.777778 0.938519 Al
0.888889 0.444444 0.938519 Al
0.555556 0.777778 0.938519 Al
0.555556 0.444444 0.938519 Al
0.555556 0.111111 0.938519 Al
1.000000 0.666667 0.971615 Al
1.000000 0.333333 0.971615 Al
0.000000 0.000000 0.971615 Al
0.666667 0.333333 0.971615 Al
0.666667 0.000000 0.971615 Al
0.666667 0.666667 0.971615 Al
0.333333 0.000000 0.971615 Al
0.333333 0.666667 0.971615 Al
0.333333 0.333333 0.971615 Al
0.666667 0.333333 0.012411 In
0.666667 0.833333 0.012411 In
0.166667 0.833333 0.012411 In
0.166667 0.333333 0.012411 In
0.333333 0.666667 0.062055 In
0.333333 0.166667 0.062055 In
0.833333 0.166667 0.062055 In
0.833333 0.666667 0.062055 In
0.000000 0.000000 0.111698 In
0.000000 0.500000 0.111698 In
0.500000 0.500000 0.111698 In
0.500000 1.000000 0.111698 In
0.666667 0.333333 0.161342 In
0.666667 0.833333 0.161342 In
0.166667 0.833333 0.161342 In
0.166667 0.333333 0.161342 In
0.333333 0.666667 0.210985 In
0.333333 0.166667 0.210985 In
0.833333 0.166667 0.210985 In
0.833333 0.666667 0.210985 In
0.000000 0.000000 0.260629 In
0.000000 0.500000 0.260629 In
0.500000 0.500000 0.260629 In
0.500000 1.000000 0.260629 In
0.666667 0.333333 0.310273 In
0.666667 0.833333 0.310273 In
0.166667 0.833333 0.310273 In
0.166667 0.333333 0.310273 In
0.333333 0.666667 0.359916 In
0.333333 0.166667 0.359916 In
0.833333 0.166667 0.359916 In
0.833333 0.666667 0.359916 In
0.000000 0.000000 0.409560 In
0.000000 0.500000 0.409560 In
0.500000 0.500000 0.409560 In
0.500000 1.000000 0.409560 In
0.666667 0.333333 0.459204 In
0.666667 0.833333 0.459204 In
0.166667 0.833333 0.459204 In
0.166667 0.333333 0.459204 In
0.333333 0.666667 0.508847 In
0.333333 0.166667 0.508847 In
0.833333 0.166667 0.508847 In
0.833333 0.666667 0.508847 In
0.000000 0.000000 0.558491 In
0.000000 0.500000 0.558491 In
0.500000 0.500000 0.558491 In
0.500000 1.000000 0.558491 In
0.666667 0.333333 0.608135 In
0.666667 0.833333 0.608135 In
0.166667 0.833333 0.608135 In
0.166667 0.333333 0.608135 In
0.333333 0.666667 0.657778 In
0.333333 0.166667 0.657778 In
0.833333 0.166667 0.657778 In
0.833333 0.666667 0.657778 In
0.000000 0.000000 0.707422 In
0.000000 0.500000 0.707422 In
0.500000 0.500000 0.707422 In
0.500000 1.000000 0.707422 In
0.000000 0.000000 0.000000 As
1.000000 0.500000 0.000000 As
0.500000 0.500000 0.000000 As
0.500000 0.000000 0.000000 As
0.666667 0.333333 0.049644 As
0.666667 0.833333 0.049644 As
0.166667 0.833333 0.049644 As
0.166667 0.333333 0.049644 As
0.333333 0.666667 0.099287 As
0.333333 0.166667 0.099287 As
0.833333 0.166667 0.099287 As
0.833333 0.666667 0.099287 As
0.000000 0.000000 0.148931 As
1.000000 0.500000 0.148931 As
0.500000 0.500000 0.148931 As
0.500000 0.000000 0.148931 As
0.666667 0.333333 0.198575 As
0.666667 0.833333 0.198575 As
0.166667 0.833333 0.198575 As
0.166667 0.333333 0.198575 As
0.333333 0.666667 0.248218 As
0.333333 0.166667 0.248218 As
0.833333 0.166667 0.248218 As
0.833333 0.666667 0.248218 As
0.000000 0.000000 0.297862 As
0.000000 0.500000 0.297862 As
0.500000 0.500000 0.297862 As
0.500000 1.000000 0.297862 As
0.666667 0.333333 0.347505 As
0.666667 0.833333 0.347505 As
0.166667 0.833333 0.347505 As
0.166667 0.333333 0.347505 As
0.333333 0.666667 0.397149 As
0.333333 0.166667 0.397149 As
0.833333 0.166667 0.397149 As
0.833333 0.666667 0.397149 As
0.000000 0.000000 0.446793 As
1.000000 0.500000 0.446793 As
0.500000 0.500000 0.446793 As
0.500000 0.000000 0.446793 As
0.666667 0.333333 0.496436 As
0.666667 0.833333 0.496436 As
0.166667 0.833333 0.496436 As
0.166667 0.333333 0.496436 As
0.333333 0.666667 0.546080 As
0.333333 0.166667 0.546080 As
0.833333 0.166667 0.546080 As
0.833333 0.666667 0.546080 As
0.000000 0.000000 0.595724 As
0.000000 0.500000 0.595724 As
0.500000 0.500000 0.595724 As
0.500000 1.000000 0.595724 As
0.666667 0.333333 0.645367 As
0.666667 0.833333 0.645367 As
0.166667 0.833333 0.645367 As
0.166667 0.333333 0.645367 As
0.333333 0.666667 0.695011 As
0.333333 0.166667 0.695011 As
0.833333 0.166667 0.695011 As
0.833333 0.666667 0.695011 As
0.000000 0.000000 0.744655 As
0.000000 0.500000 0.744655 As
0.500000 0.500000 0.744655 As
0.500000 1.000000 0.744655 As
