Al72 In44 As44 H12
1.0
-4.283936 -7.419994 0.000000
-4.283936 7.419994 0.000000
0.000000 0.000000 -99.422513
Al In As H
72 44 44 12
direct
0.444444 0.888889 0.597677 Al
0.444444 0.555556 0.597677 Al
0.444444 0.222222 0.597677 Al
0.111111 0.555556 0.597677 Al
0.111111 0.222222 0.597677 Al
0.111111 0.888889 0.597677 Al
0.777778 0.222222 0.597677 Al
0.777778 0.888889 0.597677 Al
0.777778 0.555556 0.597677 Al
0.000000 0.666667 0.574222 Al
0.000000 0.333333 0.574222 Al
0.000000 0.000000 0.574222 Al
0.666667 0.333333 0.574222 Al
0.666667 0.000000 0.574222 Al
0.666667 0.666667 0.574222 Al
0.333333 0.000000 0.574222 Al
0.333333 0.666667 0.574222 Al
0.333333 0.333333 0.574222 Al
0.222222 0.444444 0.550768 Al
0.222222 0.111111 0.550768 Al
0.222222 0.777778 0.550768 Al
0.888889 0.111111 0.550768 Al
0.888889 0.777778 0.550768 Al
0.888889 0.444444 0.550768 Al
0.555556 0.777778 0.550768 Al
0.555556 0.444444 0.550768 Al
0.555556 0.111111 0.550768 Al
0.444444 0.888889 0.527314 Al
0.444444 0.555556 0.527314 Al
0.444444 0.222222 0.527314 Al
0.111111 0.555556 0.527314 Al
0.111111 0.222222 0.527314 Al
0.111111 0.888889 0.527314 Al
0.777778 0.222222 0.527314 Al
0.777778 0.888889 0.527314 Al
0.777778 0.555556 0.527314 Al
0.666667 0.333333 0.503860 Al
0.666667 0.000000 0.503860 Al
0.666667 0.666667 0.503860 Al
0.333333 0.000000 0.503860 Al
0.333333 0.666667 0.503860 Al
0.333333 0.333333 0.503860 Al
1.000000 0.666667 0.503860 Al
1.000000 0.333333 0.503860 Al
0.000000 0.000000 0.503860 Al
0.222222 0.444444 0.480406 Al
0.222222 0.111111 0.480406 Al
0.222222 0.777778 0.480406 Al
0.888889 0.111111 0.480406 Al
0.888889 0.777778 0.480406 Al
0.888889 0.444444 0.480406 Al
0.555556 0.777778 0.480406 Al
0.555556 0.444444 0.480406 Al
0.555556 0.111111 0.480406 Al
0.444444 0.888889 0.456951 Al
0.444444 0.555556 0.456951 Al
0.444444 0.222222 0.456951 Al
0.111111 0.555556 0.456951 Al
0.111111 0.222222 0.456951 Al
0.111111 0.888889 0.456951 Al
0.777778 0.222222 0.456951 Al
0.777778 0.888889 0.456951 Al
0.777778 0.555556 0.456951 Al
0.000000 0.666667 0.433497 Al
0.000000 0.333333 0.433497 Al
0.000000 0.000000 0.433497 Al
0.666667 0.333333 0.433497 Al
0.666667 0.000000 0.433497 Al
0.666667 0.666667 0.433497 Al
0.333333 0.000000 0.433497 Al
0.333333 0.666667 0.433497 Al
0.333333 0.333333 0.433497 Al
0.000000 0.000000 0.386995 In
1.000000 0.500000 0.386995 In
0.500000 0.500000 0.386995 In
0.500000 0.000000 0.386995 In
0.333333 0.666667 0.351814 In
0.333333 0.166667 0.351814 In
0.833333 0.166667 0.351814 In
0.833333 0.666667 0.351814 In
0.666667 0.333333 0.316632 In
0.666667 0.833333 0.316632 In
0.166667 0.833333 0.316632 In
0.166667 0.333333 0.316632 In
0.000000 0.000000 0.281451 In
1.000000 0.500000 0.281451 In
0.500000 0.500000 0.281451 In
0.500000 0.000000 0.281451 In
0.333333 0.666667 0.246269 In
0.333333 0.166667 0.246269 In
0.833333 0.166667 0.246269 In
0.833333 0.666667 0.246269 In
0.666667 0.333333 0.211088 In
0.666667 0.833333 0.211088 In
0.166667 0.833333 0.211088 In
0.166667 0.333333 0.211088 In
0.000000 0.000000 0.175907 In
0.000000 0.500000 0.175907 In
0.500000 0.500000 0.175907 In
0.500000 1.000000 0.175907 In
0.333333 0.666667 0.140725 In
0.333333 0.166667 0.140725 In
0.833333 0.166667 0.140725 In
0.833333 0.666667 0.140725 In
0.666667 0.333333 0.105544 In
0.666667 0.833333 0.105544 In
0.166667 0.833333 0.105544 In
0.166667 0.333333 0.105544 In
0.000000 0.000000 0.070363 In
0.000000 0.500000 0.070363 In
0.500000 0.500000 0.070363 In
0.500000 1.000000 0.070363 In
0.333333 0.666667 0.035181 In
0.333333 0.166667 0.035181 In
0.833333 0.166667 0.035181 In
0.833333 0.666667 0.035181 In
0.000000 0.000000 0.413381 As
1.000000 0.500000 0.413381 As
0.500000 0.500000 0.413381 As
0.500000 0.000000 0.413381 As
0.333333 0.666667 0.378200 As
0.333333 0.166667 0.378200 As
0.833333 0.166667 0.378200 As
0.833333 0.666667 0.378200 As
0.666667 0.333333 0.343018 As
0.666667 0.833333 0.343018 As
0.166667 0.833333 0.343018 As
0.166667 0.333333 0.343018 As
0.000000 0.000000 0.307837 As
1.000000 0.500000 0.307837 As
0.500000 0.500000 0.307837 As
0.500000 0.000000 0.307837 As
0.333333 0.666667 0.272656 As
0.333333 0.166667 0.272656 As
0.833333 0.166667 0.272656 As
0.833333 0.666667 0.272656 As
0.666667 0.833333 0.237474 As
0.166667 0.833333 0.237474 As
0.166667 0.333333 0.237474 As
0.666667 0.333333 0.237474 As
0.000000 0.000000 0.202293 As
0.000000 0.500000 0.202293 As
0.500000 0.500000 0.202293 As
0.500000 1.000000 0.202293 As
0.333333 0.166667 0.167111 As
0.833333 0.166667 0.167111 As
0.833333 0.666667 0.167111 As
0.333333 0.666667 0.167111 As
0.666667 0.833333 0.131930 As
0.166667 0.833333 0.131930 As
0.166667 0.333333 0.131930 As
0.666667 0.333333 0.131930 As
0.000000 0.000000 0.096749 As
1.000000 0.500000 0.096749 As
0.500000 0.500000 0.096749 As
0.500000 0.000000 0.096749 As
0.333333 0.666667 0.061567 As
0.333333 0.166667 0.061567 As
0.833333 0.166667 0.061567 As
0.833333 0.666667 0.061567 As
0.531171 0.765585 0.029961 H
0.234415 0.468829 0.029961 H
0.234415 0.765585 0.029961 H
0.531171 0.265585 0.029961 H
0.234415 0.968829 0.029961 H
0.234415 0.265585 0.029961 H
0.031171 0.265585 0.029961 H
0.734415 0.968829 0.029961 H
0.734415 0.265585 0.029961 H
0.031171 0.765585 0.029961 H
0.734415 0.468829 0.029961 H
0.734415 0.765585 0.029961 H
