Al117 In108 As112
1.0
-4.283936 -7.419994 0.000000
-4.283936 7.419994 0.000000
0.000000 0.000000 -126.823637
Al In As
117 108 112
direct
1.000000 0.666667 0.762012 Al
1.000000 0.333333 0.762012 Al
0.000000 0.000000 0.762012 Al
0.666667 0.333333 0.762012 Al
0.666667 0.000000 0.762012 Al
0.666667 0.666667 0.762012 Al
0.333333 0.000000 0.762012 Al
0.333333 0.666667 0.762012 Al
0.333333 0.333333 0.762012 Al
0.444444 0.888889 0.780399 Al
0.444444 0.555556 0.780399 Al
0.444444 0.222222 0.780399 Al
0.111111 0.555556 0.780399 Al
0.111111 0.222222 0.780399 Al
0.111111 0.888889 0.780399 Al
0.777778 0.222222 0.780399 Al
0.777778 0.888889 0.780399 Al
0.777778 0.555556 0.780399 Al
0.222222 0.444444 0.798785 Al
0.222222 0.111111 0.798785 Al
0.222222 0.777778 0.798785 Al
0.888889 0.111111 0.798785 Al
0.888889 0.777778 0.798785 Al
0.888889 0.444444 0.798785 Al
0.555556 0.777778 0.798785 Al
0.555556 0.444444 0.798785 Al
0.555556 0.111111 0.798785 Al
1.000000 0.666667 0.817172 Al
1.000000 0.333333 0.817172 Al
0.000000 0.000000 0.817172 Al
0.666667 0.333333 0.817172 Al
0.666667 0.000000 0.817172 Al
0.666667 0.666667 0.817172 Al
0.333333 0.000000 0.817172 Al
0.333333 0.666667 0.817172 Al
0.333333 0.333333 0.817172 Al
0.444444 0.888889 0.835559 Al
0.444444 0.555556 0.835559 Al
0.444444 0.222222 0.835559 Al
0.111111 0.555556 0.835559 Al
0.111111 0.222222 0.835559 Al
0.111111 0.888889 0.835559 Al
0.777778 0.222222 0.835559 Al
0.777778 0.888889 0.835559 Al
0.777778 0.555556 0.835559 Al
0.222222 0.444444 0.853946 Al
0.222222 0.111111 0.853946 Al
0.222222 0.777778 0.853946 Al
0.888889 0.111111 0.853946 Al
0.888889 0.777778 0.853946 Al
0.888889 0.444444 0.853946 Al
0.555556 0.777778 0.853946 Al
0.555556 0.444444 0.853946 Al
0.555556 0.111111 0.853946 Al
1.000000 0.666667 0.872332 Al
1.000000 0.333333 0.872332 Al
0.000000 0.000000 0.872332 Al
0.666667 0.333333 0.872332 Al
0.666667 0.000000 0.872332 Al
0.666667 0.666667 0.872332 Al
0.333333 0.000000 0.872332 Al
0.333333 0.666667 0.872332 Al
0.333333 0.333333 0.872332 Al
0.444444 0.888889 0.890719 Al
0.444444 0.555556 0.890719 Al
0.444444 0.222222 0.890719 Al
0.111111 0.555556 0.890719 Al
0.111111 0.222222 0.890719 Al
0.111111 0.888889 0.890719 Al
0.777778 0.222222 0.890719 Al
0.777778 0.888889 0.890719 Al
0.777778 0.555556 0.890719 Al
0.222222 0.444444 0.909106 Al
0.222222 0.111111 0.909106 Al
0.222222 0.777778 0.909106 Al
0.888889 0.111111 0.909106 Al
0.888889 0.777778 0.909106 Al
0.888889 0.444444 0.909106 Al
0.555556 0.777778 0.909106 Al
0.555556 0.444444 0.909106 Al
0.555556 0.111111 0.909106 Al
0.000000 0.666667 0.927493 Al
0.000000 0.333333 0.927493 Al
0.000000 0.000000 0.927493 Al
0.666667 0.333333 0.927493 Al
0.666667 1.000000 0.927493 Al
0.666667 0.666667 0.927493 Al
0.333333 1.000000 0.927493 Al
0.333333 0.666667 0.927493 Al
0.333333 0.333333 0.927493 Al
0.444444 0.888889 0.945880 Al
0.444444 0.555556 0.945880 Al
0.444444 0.222222 0.945880 Al
0.111111 0.555556 0.945880 Al
0.111111 0.222222 0.945880 Al
0.111111 0.888889 0.945880 Al
0.777778 0.222222 0.945880 Al
0.777778 0.888889 0.945880 Al
0.777778 0.555556 0.945880 Al
0.222222 0.444444 0.964266 Al
0.222222 0.111111 0.964266 Al
0.222222 0.777778 0.964266 Al
0.888889 0.111111 0.964266 Al
0.888889 0.777778 0.964266 Al
0.888889 0.444444 0.964266 Al
0.555556 0.777778 0.964266 Al
0.555556 0.444444 0.964266 Al
0.555556 0.111111 0.964266 Al
1.000000 0.666667 0.982653 Al
1.000000 0.333333 0.982653 Al
0.000000 0.000000 0.982653 Al
0.666667 0.333333 0.982653 Al
0.666667 0.000000 0.982653 Al
0.666667 0.666667 0.982653 Al
0.333333 0.000000 0.982653 Al
0.333333 0.666667 0.982653 Al
0.333333 0.333333 0.982653 Al
0.666667 0.333333 0.006895 In
0.666667 0.833333 0.006895 In
0.166667 0.833333 0.006895 In
0.166667 0.333333 0.006895 In
0.333333 0.666667 0.034475 In
0.333333 0.166667 0.034475 In
0.833333 0.166667 0.034475 In
0.833333 0.666667 0.034475 In
0.000000 0.000000 0.062055 In
0.000000 0.500000 0.062055 In
0.500000 0.500000 0.062055 In
0.500000 1.000000 0.062055 In
0.666667 0.333333 0.089636 In
0.666667 0.833333 0.089636 In
0.166667 0.833333 0.089636 In
0.166667 0.333333 0.089636 In
0.333333 0.666667 0.117216 In
0.333333 0.166667 0.117216 In
0.833333 0.166667 0.117216 In
0.833333 0.666667 0.117216 In
0.000000 0.000000 0.144796 In
1.000000 0.500000 0.144796 In
0.500000 0.500000 0.144796 In
0.500000 0.000000 0.144796 In
0.666667 0.333333 0.172376 In
0.666667 0.833333 0.172376 In
0.166667 0.833333 0.172376 In
0.166667 0.333333 0.172376 In
0.333333 0.666667 0.199956 In
0.333333 0.166667 0.199956 In
0.833333 0.166667 0.199956 In
0.833333 0.666667 0.199956 In
0.000000 0.000000 0.227536 In
0.000000 0.500000 0.227536 In
0.500000 0.500000 0.227536 In
0.500000 1.000000 0.227536 In
0.666667 0.333333 0.255117 In
0.666667 0.833333 0.255117 In
0.166667 0.833333 0.255117 In
0.166667 0.333333 0.255117 In
0.333333 0.666667 0.282697 In
0.333333 0.166667 0.282697 In
0.833333 0.166667 0.282697 In
0.833333 0.666667 0.282697 In
0.000000 0.000000 0.310277 In
0.000000 0.500000 0.310277 In
0.500000 0.500000 0.310277 In
0.500000 1.000000 0.310277 In
0.666667 0.333333 0.337857 In
0.666667 0.833333 0.337857 In
0.166667 0.833333 0.337857 In
0.166667 0.333333 0.337857 In
0.333333 0.666667 0.365437 In
0.333333 0.166667 0.365437 In
0.833333 0.166667 0.365437 In
0.833333 0.666667 0.365437 In
0.000000 0.000000 0.393018 In
0.000000 0.500000 0.393018 In
0.500000 0.500000 0.393018 In
0.500000 1.000000 0.393018 In
0.666667 0.333333 0.420598 In
0.666667 0.833333 0.420598 In
0.166667 0.833333 0.420598 In
0.166667 0.333333 0.420598 In
0.333333 0.666667 0.448178 In
0.333333 0.166667 0.448178 In
0.833333 0.166667 0.448178 In
0.833333 0.666667 0.448178 In
0.000000 0.000000 0.475758 In
0.000000 0.500000 0.475758 In
0.500000 0.500000 0.475758 In
0.500000 1.000000 0.475758 In
0.666667 0.333333 0.503338 In
0.666667 0.833333 0.503338 In
0.166667 0.833333 0.503338 In
0.166667 0.333333 0.503338 In
0.333333 0.666667 0.530918 In
0.333333 0.166667 0.530918 In
0.833333 0.166667 0.530918 In
0.833333 0.666667 0.530918 In
0.000000 0.000000 0.558499 In
1.000000 0.500000 0.558499 In
0.500000 0.500000 0.558499 In
0.500000 0.000000 0.558499 In
0.666667 0.333333 0.586079 In
0.666667 0.833333 0.586079 In
0.166667 0.833333 0.586079 In
0.166667 0.333333 0.586079 In
0.333333 0.666667 0.613659 In
0.333333 0.166667 0.613659 In
0.833333 0.166667 0.613659 In
0.833333 0.666667 0.613659 In
0.000000 0.000000 0.641239 In
0.000000 0.500000 0.641239 In
0.500000 0.500000 0.641239 In
0.500000 1.000000 0.641239 In
0.666667 0.333333 0.668819 In
0.666667 0.833333 0.668819 In
0.166667 0.833333 0.668819 In
0.166667 0.333333 0.668819 In
0.333333 0.666667 0.696400 In
0.333333 0.166667 0.696400 In
0.833333 0.166667 0.696400 In
0.833333 0.666667 0.696400 In
0.000000 0.000000 0.723980 In
0.000000 0.500000 0.723980 In
0.500000 0.500000 0.723980 In
0.500000 1.000000 0.723980 In
0.000000 0.000000 0.000000 As
1.000000 0.500000 0.000000 As
0.500000 0.500000 0.000000 As
0.500000 0.000000 0.000000 As
0.666667 0.333333 0.027580 As
0.666667 0.833333 0.027580 As
0.166667 0.833333 0.027580 As
0.166667 0.333333 0.027580 As
0.333333 0.666667 0.055160 As
0.333333 0.166667 0.055160 As
0.833333 0.166667 0.055160 As
0.833333 0.666667 0.055160 As
0.000000 0.000000 0.082741 As
1.000000 0.500000 0.082741 As
0.500000 0.500000 0.082741 As
0.500000 0.000000 0.082741 As
0.666667 0.333333 0.110321 As
0.666667 0.833333 0.110321 As
0.166667 0.833333 0.110321 As
0.166667 0.333333 0.110321 As
0.333333 0.666667 0.137901 As
0.333333 0.166667 0.137901 As
0.833333 0.166667 0.137901 As
0.833333 0.666667 0.137901 As
0.000000 0.000000 0.165481 As
1.000000 0.500000 0.165481 As
0.500000 0.500000 0.165481 As
0.500000 0.000000 0.165481 As
0.666667 0.333333 0.193061 As
0.666667 0.833333 0.193061 As
0.166667 0.833333 0.193061 As
0.166667 0.333333 0.193061 As
0.333333 0.666667 0.220641 As
0.333333 0.166667 0.220641 As
0.833333 0.166667 0.220641 As
0.833333 0.666667 0.220641 As
0.000000 0.000000 0.248222 As
1.000000 0.500000 0.248222 As
0.500000 0.500000 0.248222 As
0.500000 0.000000 0.248222 As
0.666667 0.333333 0.275802 As
0.666667 0.833333 0.275802 As
0.166667 0.833333 0.275802 As
0.166667 0.333333 0.275802 As
0.333333 0.666667 0.303382 As
0.333333 0.166667 0.303382 As
0.833333 0.166667 0.303382 As
0.833333 0.666667 0.303382 As
0.000000 0.000000 0.330962 As
1.000000 0.500000 0.330962 As
0.500000 0.500000 0.330962 As
0.500000 0.000000 0.330962 As
0.666667 0.333333 0.358542 As
0.666667 0.833333 0.358542 As
0.166667 0.833333 0.358542 As
0.166667 0.333333 0.358542 As
0.333333 0.666667 0.386123 As
0.333333 0.166667 0.386123 As
0.833333 0.166667 0.386123 As
0.833333 0.666667 0.386123 As
0.000000 0.000000 0.413703 As
0.000000 0.500000 0.413703 As
0.500000 0.500000 0.413703 As
0.500000 1.000000 0.413703 As
0.666667 0.333333 0.441283 As
0.666667 0.833333 0.441283 As
0.166667 0.833333 0.441283 As
0.166667 0.333333 0.441283 As
0.333333 0.666667 0.468863 As
0.333333 0.166667 0.468863 As
0.833333 0.166667 0.468863 As
0.833333 0.666667 0.468863 As
0.000000 0.000000 0.496443 As
1.000000 0.500000 0.496443 As
0.500000 0.500000 0.496443 As
0.500000 0.000000 0.496443 As
0.666667 0.333333 0.524023 As
0.666667 0.833333 0.524023 As
0.166667 0.833333 0.524023 As
0.166667 0.333333 0.524023 As
0.333333 0.666667 0.551604 As
0.333333 0.166667 0.551604 As
0.833333 0.166667 0.551604 As
0.833333 0.666667 0.551604 As
0.000000 0.000000 0.579184 As
1.000000 0.500000 0.579184 As
0.500000 0.500000 0.579184 As
0.500000 0.000000 0.579184 As
0.666667 0.333333 0.606764 As
0.666667 0.833333 0.606764 As
0.166667 0.833333 0.606764 As
0.166667 0.333333 0.606764 As
0.333333 0.666667 0.634344 As
0.333333 0.166667 0.634344 As
0.833333 0.166667 0.634344 As
0.833333 0.666667 0.634344 As
0.000000 0.000000 0.661924 As
0.000000 0.500000 0.661924 As
0.500000 0.500000 0.661924 As
0.500000 1.000000 0.661924 As
0.666667 0.333333 0.689505 As
0.666667 0.833333 0.689505 As
0.166667 0.833333 0.689505 As
0.166667 0.333333 0.689505 As
0.333333 0.666667 0.717085 As
0.333333 0.166667 0.717085 As
0.833333 0.166667 0.717085 As
0.833333 0.666667 0.717085 As
0.000000 0.000000 0.744665 As
0.000000 0.500000 0.744665 As
0.500000 0.500000 0.744665 As
0.500000 1.000000 0.744665 As
