Al640 In390 Ga130 As520
1.0
5.711910 0.000000 0.000000
0.000000 79.146541 0.000000
0.000000 0.000000 111.101896
Al In Ga As
640 390 130 520
direct
0.500000 0.937500 0.541080 Al
0.000000 0.875000 0.541080 Al
0.500000 0.812500 0.541080 Al
0.000000 0.750000 0.541080 Al
0.500000 0.687500 0.541080 Al
0.000000 0.625000 0.541080 Al
0.500000 0.562500 0.541080 Al
0.000000 0.500000 0.541080 Al
0.500000 0.437500 0.541080 Al
0.000000 0.375000 0.541080 Al
0.500000 0.312500 0.541080 Al
0.000000 0.250000 0.541080 Al
0.500000 0.187500 0.541080 Al
0.000000 0.125000 0.541080 Al
0.500000 0.062500 0.541080 Al
0.000000 0.000000 0.541080 Al
0.250000 0.968750 0.541080 Al
0.750000 0.906250 0.541080 Al
0.250000 0.843750 0.541080 Al
0.750000 0.781250 0.541080 Al
0.250000 0.718750 0.541080 Al
0.750000 0.656250 0.541080 Al
0.250000 0.593750 0.541080 Al
0.750000 0.531250 0.541080 Al
0.250000 0.468750 0.541080 Al
0.750000 0.406250 0.541080 Al
0.250000 0.343750 0.541080 Al
0.750000 0.281250 0.541080 Al
0.250000 0.218750 0.541080 Al
0.750000 0.156250 0.541080 Al
0.250000 0.093750 0.541080 Al
0.750000 0.031250 0.541080 Al
0.000000 0.937500 0.541080 Al
0.500000 0.875000 0.541080 Al
0.000000 0.812500 0.541080 Al
0.500000 0.750000 0.541080 Al
0.000000 0.687500 0.541080 Al
0.500000 0.625000 0.541080 Al
0.000000 0.562500 0.541080 Al
0.500000 0.500000 0.541080 Al
0.000000 0.437500 0.541080 Al
0.500000 0.375000 0.541080 Al
0.000000 0.312500 0.541080 Al
0.500000 0.250000 0.541080 Al
0.000000 0.187500 0.541080 Al
0.500000 0.125000 0.541080 Al
0.000000 0.062500 0.541080 Al
0.500000 0.000000 0.541080 Al
0.750000 0.968750 0.541080 Al
0.250000 0.906250 0.541080 Al
0.750000 0.843750 0.541080 Al
0.250000 0.781250 0.541080 Al
0.750000 0.718750 0.541080 Al
0.250000 0.656250 0.541080 Al
0.750000 0.593750 0.541080 Al
0.250000 0.531250 0.541080 Al
0.750000 0.468750 0.541080 Al
0.250000 0.406250 0.541080 Al
0.750000 0.343750 0.541080 Al
0.250000 0.281250 0.541080 Al
0.750000 0.218750 0.541080 Al
0.250000 0.156250 0.541080 Al
0.750000 0.093750 0.541080 Al
0.250000 0.031250 0.541080 Al
0.000000 0.958333 0.562069 Al
0.500000 0.895833 0.562069 Al
0.000000 0.833333 0.562069 Al
0.500000 0.770833 0.562069 Al
0.000000 0.708333 0.562069 Al
0.500000 0.645833 0.562069 Al
0.000000 0.583333 0.562069 Al
0.500000 0.520833 0.562069 Al
0.000000 0.458333 0.562069 Al
0.500000 0.395833 0.562069 Al
0.000000 0.333333 0.562069 Al
0.500000 0.270833 0.562069 Al
0.000000 0.208333 0.562069 Al
0.500000 0.145833 0.562069 Al
0.000000 0.083333 0.562069 Al
0.500000 0.020833 0.562069 Al
0.750000 0.989583 0.562069 Al
0.250000 0.927083 0.562069 Al
0.750000 0.864583 0.562069 Al
0.250000 0.802083 0.562069 Al
0.750000 0.739583 0.562069 Al
0.250000 0.677083 0.562069 Al
0.750000 0.614583 0.562069 Al
0.250000 0.552083 0.562069 Al
0.750000 0.489583 0.562069 Al
0.250000 0.427083 0.562069 Al
0.750000 0.364583 0.562069 Al
0.250000 0.302083 0.562069 Al
0.750000 0.239583 0.562069 Al
0.250000 0.177083 0.562069 Al
0.750000 0.114583 0.562069 Al
0.250000 0.052083 0.562069 Al
0.500000 0.958333 0.562069 Al
0.000000 0.895833 0.562069 Al
0.500000 0.833333 0.562069 Al
0.000000 0.770833 0.562069 Al
0.500000 0.708333 0.562069 Al
0.000000 0.645833 0.562069 Al
0.500000 0.583333 0.562069 Al
0.000000 0.520833 0.562069 Al
0.500000 0.458333 0.562069 Al
0.000000 0.395833 0.562069 Al
0.500000 0.333333 0.562069 Al
0.000000 0.270833 0.562069 Al
0.500000 0.208333 0.562069 Al
0.000000 0.145833 0.562069 Al
0.500000 0.083333 0.562069 Al
0.000000 0.020833 0.562069 Al
0.250000 0.989583 0.562069 Al
0.750000 0.927083 0.562069 Al
0.250000 0.864583 0.562069 Al
0.750000 0.802083 0.562069 Al
0.250000 0.739583 0.562069 Al
0.750000 0.677083 0.562069 Al
0.250000 0.614583 0.562069 Al
0.750000 0.552083 0.562069 Al
0.250000 0.489583 0.562069 Al
0.750000 0.427083 0.562069 Al
0.250000 0.364583 0.562069 Al
0.750000 0.302083 0.562069 Al
0.250000 0.239583 0.562069 Al
0.750000 0.177083 0.562069 Al
0.250000 0.114583 0.562069 Al
0.750000 0.052083 0.562069 Al
0.500000 0.979167 0.583057 Al
0.000000 0.916667 0.583057 Al
0.500000 0.854167 0.583057 Al
0.000000 0.791667 0.583057 Al
0.500000 0.729167 0.583057 Al
0.000000 0.666667 0.583057 Al
0.500000 0.604167 0.583057 Al
0.000000 0.541667 0.583057 Al
0.500000 0.479167 0.583057 Al
0.000000 0.416667 0.583057 Al
0.500000 0.354167 0.583057 Al
1.000000 0.291667 0.583057 Al
0.500000 0.229167 0.583057 Al
0.000000 0.166667 0.583057 Al
0.500000 0.104167 0.583057 Al
0.000000 0.041667 0.583057 Al
0.750000 0.947917 0.583057 Al
0.250000 0.885417 0.583057 Al
0.750000 0.822917 0.583057 Al
0.250000 0.760417 0.583057 Al
0.750000 0.697917 0.583057 Al
0.250000 0.635417 0.583057 Al
0.750000 0.572917 0.583057 Al
0.250000 0.510417 0.583057 Al
0.750000 0.447917 0.583057 Al
0.250000 0.385417 0.583057 Al
0.750000 0.322917 0.583057 Al
0.250000 0.260417 0.583057 Al
0.750000 0.197917 0.583057 Al
0.250000 0.135417 0.583057 Al
0.750000 0.072917 0.583057 Al
0.250000 0.010417 0.583057 Al
0.000000 0.979167 0.583057 Al
0.500000 0.916667 0.583057 Al
0.000000 0.854167 0.583057 Al
0.500000 0.791667 0.583057 Al
0.000000 0.729167 0.583057 Al
0.500000 0.666667 0.583057 Al
0.000000 0.604167 0.583057 Al
0.500000 0.541667 0.583057 Al
0.000000 0.479167 0.583057 Al
0.500000 0.416667 0.583057 Al
0.000000 0.354167 0.583057 Al
0.500000 0.291667 0.583057 Al
0.000000 0.229167 0.583057 Al
0.500000 0.166667 0.583057 Al
0.000000 0.104167 0.583057 Al
0.500000 0.041667 0.583057 Al
0.250000 0.947917 0.583057 Al
0.750000 0.885417 0.583057 Al
0.250000 0.822917 0.583057 Al
0.750000 0.760417 0.583057 Al
0.250000 0.697917 0.583057 Al
0.750000 0.635417 0.583057 Al
0.250000 0.572917 0.583057 Al
0.750000 0.510417 0.583057 Al
0.250000 0.447917 0.583057 Al
0.750000 0.385417 0.583057 Al
0.250000 0.322917 0.583057 Al
0.750000 0.260417 0.583057 Al
0.250000 0.197917 0.583057 Al
0.750000 0.135417 0.583057 Al
0.250000 0.072917 0.583057 Al
0.750000 0.010417 0.583057 Al
0.500000 0.937500 0.604046 Al
0.000000 0.875000 0.604046 Al
0.500000 0.812500 0.604046 Al
0.000000 0.750000 0.604046 Al
0.500000 0.687500 0.604046 Al
0.000000 0.625000 0.604046 Al
0.500000 0.562500 0.604046 Al
0.000000 0.500000 0.604046 Al
0.500000 0.437500 0.604046 Al
0.000000 0.375000 0.604046 Al
0.500000 0.312500 0.604046 Al
0.000000 0.250000 0.604046 Al
0.500000 0.187500 0.604046 Al
0.000000 0.125000 0.604046 Al
0.500000 0.062500 0.604046 Al
0.000000 0.000000 0.604046 Al
0.250000 0.968750 0.604046 Al
0.750000 0.906250 0.604046 Al
0.250000 0.843750 0.604046 Al
0.750000 0.781250 0.604046 Al
0.250000 0.718750 0.604046 Al
0.750000 0.656250 0.604046 Al
0.250000 0.593750 0.604046 Al
0.750000 0.531250 0.604046 Al
0.250000 0.468750 0.604046 Al
0.750000 0.406250 0.604046 Al
0.250000 0.343750 0.604046 Al
0.750000 0.281250 0.604046 Al
0.250000 0.218750 0.604046 Al
0.750000 0.156250 0.604046 Al
0.250000 0.093750 0.604046 Al
0.750000 0.031250 0.604046 Al
0.000000 0.937500 0.604046 Al
0.500000 0.875000 0.604046 Al
0.000000 0.812500 0.604046 Al
0.500000 0.750000 0.604046 Al
0.000000 0.687500 0.604046 Al
0.500000 0.625000 0.604046 Al
0.000000 0.562500 0.604046 Al
0.500000 0.500000 0.604046 Al
0.000000 0.437500 0.604046 Al
0.500000 0.375000 0.604046 Al
0.000000 0.312500 0.604046 Al
0.500000 0.250000 0.604046 Al
0.000000 0.187500 0.604046 Al
0.500000 0.125000 0.604046 Al
0.000000 0.062500 0.604046 Al
0.500000 0.000000 0.604046 Al
0.750000 0.968750 0.604046 Al
0.250000 0.906250 0.604046 Al
0.750000 0.843750 0.604046 Al
0.250000 0.781250 0.604046 Al
0.750000 0.718750 0.604046 Al
0.250000 0.656250 0.604046 Al
0.750000 0.593750 0.604046 Al
0.250000 0.531250 0.604046 Al
0.750000 0.468750 0.604046 Al
0.250000 0.406250 0.604046 Al
0.750000 0.343750 0.604046 Al
0.250000 0.281250 0.604046 Al
0.750000 0.218750 0.604046 Al
0.250000 0.156250 0.604046 Al
0.750000 0.093750 0.604046 Al
0.250000 0.031250 0.604046 Al
0.000000 0.958333 0.625034 Al
0.500000 0.895833 0.625034 Al
0.000000 0.833333 0.625034 Al
0.500000 0.770833 0.625034 Al
0.000000 0.708333 0.625034 Al
0.500000 0.645833 0.625034 Al
0.000000 0.583333 0.625034 Al
0.500000 0.520833 0.625034 Al
0.000000 0.458333 0.625034 Al
0.500000 0.395833 0.625034 Al
0.000000 0.333333 0.625034 Al
0.500000 0.270833 0.625034 Al
0.000000 0.208333 0.625034 Al
0.500000 0.145833 0.625034 Al
0.000000 0.083333 0.625034 Al
0.500000 0.020833 0.625034 Al
0.750000 0.989583 0.625034 Al
0.250000 0.927083 0.625034 Al
0.750000 0.864583 0.625034 Al
0.250000 0.802083 0.625034 Al
0.750000 0.739583 0.625034 Al
0.250000 0.677083 0.625034 Al
0.750000 0.614583 0.625034 Al
0.250000 0.552083 0.625034 Al
0.750000 0.489583 0.625034 Al
0.250000 0.427083 0.625034 Al
0.750000 0.364583 0.625034 Al
0.250000 0.302083 0.625034 Al
0.750000 0.239583 0.625034 Al
0.250000 0.177083 0.625034 Al
0.750000 0.114583 0.625034 Al
0.250000 0.052083 0.625034 Al
0.500000 0.958333 0.625034 Al
0.000000 0.895833 0.625034 Al
0.500000 0.833333 0.625034 Al
0.000000 0.770833 0.625034 Al
0.500000 0.708333 0.625034 Al
0.000000 0.645833 0.625034 Al
0.500000 0.583333 0.625034 Al
0.000000 0.520833 0.625034 Al
0.500000 0.458333 0.625034 Al
0.000000 0.395833 0.625034 Al
0.500000 0.333333 0.625034 Al
0.000000 0.270833 0.625034 Al
0.500000 0.208333 0.625034 Al
0.000000 0.145833 0.625034 Al
0.500000 0.083333 0.625034 Al
0.000000 0.020833 0.625034 Al
0.250000 0.989583 0.625034 Al
0.750000 0.927083 0.625034 Al
0.250000 0.864583 0.625034 Al
0.750000 0.802083 0.625034 Al
0.250000 0.739583 0.625034 Al
0.750000 0.677083 0.625034 Al
0.250000 0.614583 0.625034 Al
0.750000 0.552083 0.625034 Al
0.250000 0.489583 0.625034 Al
0.750000 0.427083 0.625034 Al
0.250000 0.364583 0.625034 Al
0.750000 0.302083 0.625034 Al
0.250000 0.239583 0.625034 Al
0.750000 0.177083 0.625034 Al
0.250000 0.114583 0.625034 Al
0.750000 0.052083 0.625034 Al
0.500000 0.979167 0.646023 Al
0.000000 0.916667 0.646023 Al
0.500000 0.854167 0.646023 Al
0.000000 0.791667 0.646023 Al
0.500000 0.729167 0.646023 Al
0.000000 0.666667 0.646023 Al
0.500000 0.604167 0.646023 Al
0.000000 0.541667 0.646023 Al
0.500000 0.479167 0.646023 Al
0.000000 0.416667 0.646023 Al
0.500000 0.354167 0.646023 Al
1.000000 0.291667 0.646023 Al
0.500000 0.229167 0.646023 Al
0.000000 0.166667 0.646023 Al
0.500000 0.104167 0.646023 Al
0.000000 0.041667 0.646023 Al
0.750000 0.947917 0.646023 Al
0.250000 0.885417 0.646023 Al
0.750000 0.822917 0.646023 Al
0.250000 0.760417 0.646023 Al
0.750000 0.697917 0.646023 Al
0.250000 0.635417 0.646023 Al
0.750000 0.572917 0.646023 Al
0.250000 0.510417 0.646023 Al
0.750000 0.447917 0.646023 Al
0.250000 0.385417 0.646023 Al
0.750000 0.322917 0.646023 Al
0.250000 0.260417 0.646023 Al
0.750000 0.197917 0.646023 Al
0.250000 0.135417 0.646023 Al
0.750000 0.072917 0.646023 Al
0.250000 0.010417 0.646023 Al
0.000000 0.979167 0.646023 Al
0.500000 0.916667 0.646023 Al
0.000000 0.854167 0.646023 Al
0.500000 0.791667 0.646023 Al
0.000000 0.729167 0.646023 Al
0.500000 0.666667 0.646023 Al
0.000000 0.604167 0.646023 Al
0.500000 0.541667 0.646023 Al
0.000000 0.479167 0.646023 Al
0.500000 0.416667 0.646023 Al
0.000000 0.354167 0.646023 Al
0.500000 0.291667 0.646023 Al
0.000000 0.229167 0.646023 Al
0.500000 0.166667 0.646023 Al
0.000000 0.104167 0.646023 Al
0.500000 0.041667 0.646023 Al
0.250000 0.947917 0.646023 Al
0.750000 0.885417 0.646023 Al
0.250000 0.822917 0.646023 Al
0.750000 0.760417 0.646023 Al
0.250000 0.697917 0.646023 Al
0.750000 0.635417 0.646023 Al
0.250000 0.572917 0.646023 Al
0.750000 0.510417 0.646023 Al
0.250000 0.447917 0.646023 Al
0.750000 0.385417 0.646023 Al
0.250000 0.322917 0.646023 Al
0.750000 0.260417 0.646023 Al
0.250000 0.197917 0.646023 Al
0.750000 0.135417 0.646023 Al
0.250000 0.072917 0.646023 Al
0.750000 0.010417 0.646023 Al
0.500000 0.937500 0.667012 Al
0.000000 0.875000 0.667012 Al
0.500000 0.812500 0.667012 Al
0.000000 0.750000 0.667012 Al
0.500000 0.687500 0.667012 Al
0.000000 0.625000 0.667012 Al
0.500000 0.562500 0.667012 Al
0.000000 0.500000 0.667012 Al
0.500000 0.437500 0.667012 Al
0.000000 0.375000 0.667012 Al
0.500000 0.312500 0.667012 Al
0.000000 0.250000 0.667012 Al
0.500000 0.187500 0.667012 Al
0.000000 0.125000 0.667012 Al
0.500000 0.062500 0.667012 Al
0.000000 0.000000 0.667012 Al
0.250000 0.968750 0.667012 Al
0.750000 0.906250 0.667012 Al
0.250000 0.843750 0.667012 Al
0.750000 0.781250 0.667012 Al
0.250000 0.718750 0.667012 Al
0.750000 0.656250 0.667012 Al
0.250000 0.593750 0.667012 Al
0.750000 0.531250 0.667012 Al
0.250000 0.468750 0.667012 Al
0.750000 0.406250 0.667012 Al
0.250000 0.343750 0.667012 Al
0.750000 0.281250 0.667012 Al
0.250000 0.218750 0.667012 Al
0.750000 0.156250 0.667012 Al
0.250000 0.093750 0.667012 Al
0.750000 0.031250 0.667012 Al
0.000000 0.937500 0.667012 Al
0.500000 0.875000 0.667012 Al
0.000000 0.812500 0.667012 Al
0.500000 0.750000 0.667012 Al
0.000000 0.687500 0.667012 Al
0.500000 0.625000 0.667012 Al
0.000000 0.562500 0.667012 Al
0.500000 0.500000 0.667012 Al
0.000000 0.437500 0.667012 Al
0.500000 0.375000 0.667012 Al
0.000000 0.312500 0.667012 Al
0.500000 0.250000 0.667012 Al
0.000000 0.187500 0.667012 Al
0.500000 0.125000 0.667012 Al
0.000000 0.062500 0.667012 Al
0.500000 0.000000 0.667012 Al
0.750000 0.968750 0.667012 Al
0.250000 0.906250 0.667012 Al
0.750000 0.843750 0.667012 Al
0.250000 0.781250 0.667012 Al
0.750000 0.718750 0.667012 Al
0.250000 0.656250 0.667012 Al
0.750000 0.593750 0.667012 Al
0.250000 0.531250 0.667012 Al
0.750000 0.468750 0.667012 Al
0.250000 0.406250 0.667012 Al
0.750000 0.343750 0.667012 Al
0.250000 0.281250 0.667012 Al
0.750000 0.218750 0.667012 Al
0.250000 0.156250 0.667012 Al
0.750000 0.093750 0.667012 Al
0.250000 0.031250 0.667012 Al
0.000000 0.958333 0.688000 Al
0.500000 0.895833 0.688000 Al
0.000000 0.833333 0.688000 Al
0.500000 0.770833 0.688000 Al
0.000000 0.708333 0.688000 Al
0.500000 0.645833 0.688000 Al
0.000000 0.583333 0.688000 Al
0.500000 0.520833 0.688000 Al
0.000000 0.458333 0.688000 Al
0.500000 0.395833 0.688000 Al
0.000000 0.333333 0.688000 Al
0.500000 0.270833 0.688000 Al
0.000000 0.208333 0.688000 Al
0.500000 0.145833 0.688000 Al
0.000000 0.083333 0.688000 Al
0.500000 0.020833 0.688000 Al
0.750000 0.989583 0.688000 Al
0.250000 0.927083 0.688000 Al
0.750000 0.864583 0.688000 Al
0.250000 0.802083 0.688000 Al
0.750000 0.739583 0.688000 Al
0.250000 0.677083 0.688000 Al
0.750000 0.614583 0.688000 Al
0.250000 0.552083 0.688000 Al
0.750000 0.489583 0.688000 Al
0.250000 0.427083 0.688000 Al
0.750000 0.364583 0.688000 Al
0.250000 0.302083 0.688000 Al
0.750000 0.239583 0.688000 Al
0.250000 0.177083 0.688000 Al
0.750000 0.114583 0.688000 Al
0.250000 0.052083 0.688000 Al
0.500000 0.958333 0.688000 Al
0.000000 0.895833 0.688000 Al
0.500000 0.833333 0.688000 Al
0.000000 0.770833 0.688000 Al
0.500000 0.708333 0.688000 Al
0.000000 0.645833 0.688000 Al
0.500000 0.583333 0.688000 Al
0.000000 0.520833 0.688000 Al
0.500000 0.458333 0.688000 Al
0.000000 0.395833 0.688000 Al
0.500000 0.333333 0.688000 Al
0.000000 0.270833 0.688000 Al
0.500000 0.208333 0.688000 Al
0.000000 0.145833 0.688000 Al
0.500000 0.083333 0.688000 Al
0.000000 0.020833 0.688000 Al
0.250000 0.989583 0.688000 Al
0.750000 0.927083 0.688000 Al
0.250000 0.864583 0.688000 Al
0.750000 0.802083 0.688000 Al
0.250000 0.739583 0.688000 Al
0.750000 0.677083 0.688000 Al
0.250000 0.614583 0.688000 Al
0.750000 0.552083 0.688000 Al
0.250000 0.489583 0.688000 Al
0.750000 0.427083 0.688000 Al
0.250000 0.364583 0.688000 Al
0.750000 0.302083 0.688000 Al
0.250000 0.239583 0.688000 Al
0.750000 0.177083 0.688000 Al
0.250000 0.114583 0.688000 Al
0.750000 0.052083 0.688000 Al
0.500000 0.979167 0.708989 Al
0.000000 0.916667 0.708989 Al
0.500000 0.854167 0.708989 Al
0.000000 0.791667 0.708989 Al
0.500000 0.729167 0.708989 Al
0.000000 0.666667 0.708989 Al
0.500000 0.604167 0.708989 Al
0.000000 0.541667 0.708989 Al
0.500000 0.479167 0.708989 Al
0.000000 0.416667 0.708989 Al
0.500000 0.354167 0.708989 Al
0.000000 0.291667 0.708989 Al
0.500000 0.229167 0.708989 Al
0.000000 0.166667 0.708989 Al
0.500000 0.104167 0.708989 Al
0.000000 0.041667 0.708989 Al
0.750000 0.947917 0.708989 Al
0.250000 0.885417 0.708989 Al
0.750000 0.822917 0.708989 Al
0.250000 0.760417 0.708989 Al
0.750000 0.697917 0.708989 Al
0.250000 0.635417 0.708989 Al
0.750000 0.572917 0.708989 Al
0.250000 0.510417 0.708989 Al
0.750000 0.447917 0.708989 Al
0.250000 0.385417 0.708989 Al
0.750000 0.322917 0.708989 Al
0.250000 0.260417 0.708989 Al
0.750000 0.197917 0.708989 Al
0.250000 0.135417 0.708989 Al
0.750000 0.072917 0.708989 Al
0.250000 0.010417 0.708989 Al
0.000000 0.979167 0.708989 Al
0.500000 0.916667 0.708989 Al
0.000000 0.854167 0.708989 Al
0.500000 0.791667 0.708989 Al
0.000000 0.729167 0.708989 Al
0.500000 0.666667 0.708989 Al
0.000000 0.604167 0.708989 Al
0.500000 0.541667 0.708989 Al
0.000000 0.479167 0.708989 Al
0.500000 0.416667 0.708989 Al
0.000000 0.354167 0.708989 Al
0.500000 0.291667 0.708989 Al
0.000000 0.229167 0.708989 Al
0.500000 0.166667 0.708989 Al
0.000000 0.104167 0.708989 Al
0.500000 0.041667 0.708989 Al
0.250000 0.947917 0.708989 Al
0.750000 0.885417 0.708989 Al
0.250000 0.822917 0.708989 Al
0.750000 0.760417 0.708989 Al
0.250000 0.697917 0.708989 Al
0.750000 0.635417 0.708989 Al
0.250000 0.572917 0.708989 Al
0.750000 0.510417 0.708989 Al
0.250000 0.447917 0.708989 Al
0.750000 0.385417 0.708989 Al
0.250000 0.322917 0.708989 Al
0.750000 0.260417 0.708989 Al
0.250000 0.197917 0.708989 Al
0.750000 0.135417 0.708989 Al
0.250000 0.072917 0.708989 Al
0.750000 0.010417 0.708989 Al
0.500000 0.937500 0.729978 Al
0.000000 0.875000 0.729978 Al
0.500000 0.812500 0.729978 Al
0.000000 0.750000 0.729978 Al
0.500000 0.687500 0.729978 Al
0.000000 0.625000 0.729978 Al
0.500000 0.562500 0.729978 Al
0.000000 0.500000 0.729978 Al
0.500000 0.437500 0.729978 Al
0.000000 0.375000 0.729978 Al
0.500000 0.312500 0.729978 Al
0.000000 0.250000 0.729978 Al
0.500000 0.187500 0.729978 Al
0.000000 0.125000 0.729978 Al
0.500000 0.062500 0.729978 Al
0.000000 0.000000 0.729978 Al
0.250000 0.968750 0.729978 Al
0.750000 0.906250 0.729978 Al
0.250000 0.843750 0.729978 Al
0.750000 0.781250 0.729978 Al
0.250000 0.718750 0.729978 Al
0.750000 0.656250 0.729978 Al
0.250000 0.593750 0.729978 Al
0.750000 0.531250 0.729978 Al
0.250000 0.468750 0.729978 Al
0.750000 0.406250 0.729978 Al
0.250000 0.343750 0.729978 Al
0.750000 0.281250 0.729978 Al
0.250000 0.218750 0.729978 Al
0.750000 0.156250 0.729978 Al
0.250000 0.093750 0.729978 Al
0.750000 0.031250 0.729978 Al
0.000000 0.937500 0.729978 Al
0.500000 0.875000 0.729978 Al
0.000000 0.812500 0.729978 Al
0.500000 0.750000 0.729978 Al
0.000000 0.687500 0.729978 Al
0.500000 0.625000 0.729978 Al
0.000000 0.562500 0.729978 Al
0.500000 0.500000 0.729978 Al
0.000000 0.437500 0.729978 Al
0.500000 0.375000 0.729978 Al
0.000000 0.312500 0.729978 Al
0.500000 0.250000 0.729978 Al
0.000000 0.187500 0.729978 Al
0.500000 0.125000 0.729978 Al
0.000000 0.062500 0.729978 Al
0.500000 0.000000 0.729978 Al
0.750000 0.968750 0.729978 Al
0.250000 0.906250 0.729978 Al
0.750000 0.843750 0.729978 Al
0.250000 0.781250 0.729978 Al
0.750000 0.718750 0.729978 Al
0.250000 0.656250 0.729978 Al
0.750000 0.593750 0.729978 Al
0.250000 0.531250 0.729978 Al
0.750000 0.468750 0.729978 Al
0.250000 0.406250 0.729978 Al
0.750000 0.343750 0.729978 Al
0.250000 0.281250 0.729978 Al
0.750000 0.218750 0.729978 Al
0.250000 0.156250 0.729978 Al
0.750000 0.093750 0.729978 Al
0.250000 0.031250 0.729978 Al
0.000000 0.000000 0.013366 In
0.000000 0.076923 0.013366 In
0.000000 0.153846 0.013366 In
0.000000 0.230769 0.013366 In
0.000000 0.307692 0.013366 In
0.000000 0.384615 0.013366 In
0.000000 0.461538 0.013366 In
0.000000 0.538462 0.013366 In
0.000000 0.615385 0.013366 In
0.000000 0.692308 0.013366 In
0.000000 0.769231 0.013366 In
0.000000 0.846154 0.013366 In
0.000000 0.923077 0.013366 In
0.000000 0.038462 0.040098 In
0.000000 0.115385 0.040098 In
0.000000 0.192308 0.040098 In
0.000000 0.269231 0.040098 In
0.000000 0.346154 0.040098 In
0.000000 0.423077 0.040098 In
0.000000 0.500000 0.040098 In
0.000000 0.576923 0.040098 In
0.000000 0.653846 0.040098 In
0.000000 0.730769 0.040098 In
0.000000 0.807692 0.040098 In
0.000000 0.884615 0.040098 In
0.000000 0.961538 0.040098 In
0.500000 0.000000 0.040098 In
0.500000 0.076923 0.040098 In
0.500000 0.153846 0.040098 In
0.500000 0.230769 0.040098 In
0.500000 0.307692 0.040098 In
0.500000 0.384615 0.040098 In
0.500000 0.461538 0.040098 In
0.500000 0.538462 0.040098 In
0.500000 0.615385 0.040098 In
0.500000 0.692308 0.040098 In
0.500000 0.769231 0.040098 In
0.500000 0.846154 0.040098 In
0.500000 0.923077 0.040098 In
0.000000 0.000000 0.066831 In
0.000000 0.076923 0.066831 In
0.000000 0.153846 0.066831 In
0.000000 0.230769 0.066831 In
0.000000 0.307692 0.066831 In
0.000000 0.384615 0.066831 In
0.000000 0.461538 0.066831 In
0.000000 0.538462 0.066831 In
0.000000 0.615385 0.066831 In
0.000000 0.692308 0.066831 In
0.000000 0.769231 0.066831 In
0.000000 0.846154 0.066831 In
0.000000 0.923077 0.066831 In
0.000000 0.038462 0.093563 In
0.000000 0.115385 0.093563 In
0.000000 0.192308 0.093563 In
0.000000 0.269231 0.093563 In
0.000000 0.346154 0.093563 In
0.000000 0.423077 0.093563 In
0.000000 0.500000 0.093563 In
0.000000 0.576923 0.093563 In
0.000000 0.653846 0.093563 In
0.000000 0.730769 0.093563 In
0.000000 0.807692 0.093563 In
0.000000 0.884615 0.093563 In
0.000000 0.961538 0.093563 In
0.500000 0.000000 0.093563 In
0.500000 0.076923 0.093563 In
0.500000 0.153846 0.093563 In
0.500000 0.230769 0.093563 In
0.500000 0.307692 0.093563 In
0.500000 0.384615 0.093563 In
0.500000 0.461538 0.093563 In
0.500000 0.538462 0.093563 In
0.500000 0.615385 0.093563 In
0.500000 0.692308 0.093563 In
0.500000 0.769231 0.093563 In
0.500000 0.846154 0.093563 In
0.500000 0.923077 0.093563 In
0.000000 0.000000 0.120295 In
0.000000 0.076923 0.120295 In
0.000000 0.153846 0.120295 In
0.000000 0.230769 0.120295 In
0.000000 0.307692 0.120295 In
0.000000 0.384615 0.120295 In
0.000000 0.461538 0.120295 In
0.000000 0.538462 0.120295 In
0.000000 0.615385 0.120295 In
0.000000 0.692308 0.120295 In
0.000000 0.769231 0.120295 In
0.000000 0.846154 0.120295 In
0.000000 0.923077 0.120295 In
0.000000 0.038462 0.147027 In
0.000000 0.115385 0.147027 In
0.000000 0.192308 0.147027 In
0.000000 0.269231 0.147027 In
0.000000 0.346154 0.147027 In
0.000000 0.423077 0.147027 In
0.000000 0.500000 0.147027 In
0.000000 0.576923 0.147027 In
0.000000 0.653846 0.147027 In
0.000000 0.730769 0.147027 In
0.000000 0.807692 0.147027 In
0.000000 0.884615 0.147027 In
0.000000 0.961538 0.147027 In
0.500000 0.000000 0.147027 In
0.500000 0.076923 0.147027 In
0.500000 0.153846 0.147027 In
0.500000 0.230769 0.147027 In
0.500000 0.307692 0.147027 In
0.500000 0.384615 0.147027 In
0.500000 0.461538 0.147027 In
0.500000 0.538462 0.147027 In
0.500000 0.615385 0.147027 In
0.500000 0.692308 0.147027 In
0.500000 0.769231 0.147027 In
0.500000 0.846154 0.147027 In
0.500000 0.923077 0.147027 In
0.000000 0.000000 0.173759 In
0.000000 0.076923 0.173759 In
0.000000 0.153846 0.173759 In
0.000000 0.230769 0.173759 In
0.000000 0.307692 0.173759 In
0.000000 0.384615 0.173759 In
0.000000 0.461538 0.173759 In
0.000000 0.538462 0.173759 In
0.000000 0.615385 0.173759 In
0.000000 0.692308 0.173759 In
0.000000 0.769231 0.173759 In
0.000000 0.846154 0.173759 In
0.000000 0.923077 0.173759 In
0.000000 0.038462 0.200492 In
0.000000 0.115385 0.200492 In
0.000000 0.192308 0.200492 In
0.000000 0.269231 0.200492 In
0.000000 0.346154 0.200492 In
0.000000 0.423077 0.200492 In
0.000000 0.500000 0.200492 In
0.000000 0.576923 0.200492 In
0.000000 0.653846 0.200492 In
0.000000 0.730769 0.200492 In
0.000000 0.807692 0.200492 In
0.000000 0.884615 0.200492 In
0.000000 0.961538 0.200492 In
0.500000 0.000000 0.200492 In
0.500000 0.076923 0.200492 In
0.500000 0.153846 0.200492 In
0.500000 0.230769 0.200492 In
0.500000 0.307692 0.200492 In
0.500000 0.384615 0.200492 In
0.500000 0.461538 0.200492 In
0.500000 0.538462 0.200492 In
0.500000 0.615385 0.200492 In
0.500000 0.692308 0.200492 In
0.500000 0.769231 0.200492 In
0.500000 0.846154 0.200492 In
0.500000 0.923077 0.200492 In
0.000000 0.000000 0.227224 In
0.000000 0.076923 0.227224 In
0.000000 0.153846 0.227224 In
0.000000 0.230769 0.227224 In
0.000000 0.307692 0.227224 In
0.000000 0.384615 0.227224 In
0.000000 0.461538 0.227224 In
0.000000 0.538462 0.227224 In
0.000000 0.615385 0.227224 In
0.000000 0.692308 0.227224 In
0.000000 0.769231 0.227224 In
0.000000 0.846154 0.227224 In
0.000000 0.923077 0.227224 In
0.000000 0.038462 0.253956 In
0.000000 0.115385 0.253956 In
0.000000 0.192308 0.253956 In
0.000000 0.269231 0.253956 In
0.000000 0.346154 0.253956 In
0.000000 0.423077 0.253956 In
0.000000 0.500000 0.253956 In
0.000000 0.576923 0.253956 In
0.000000 0.653846 0.253956 In
0.000000 0.730769 0.253956 In
0.000000 0.807692 0.253956 In
0.000000 0.884615 0.253956 In
0.000000 0.961538 0.253956 In
0.500000 0.000000 0.253956 In
0.500000 0.076923 0.253956 In
0.500000 0.153846 0.253956 In
0.500000 0.230769 0.253956 In
0.500000 0.307692 0.253956 In
0.500000 0.384615 0.253956 In
0.500000 0.461538 0.253956 In
0.500000 0.538462 0.253956 In
0.500000 0.615385 0.253956 In
0.500000 0.692308 0.253956 In
0.500000 0.769231 0.253956 In
0.500000 0.846154 0.253956 In
0.500000 0.923077 0.253956 In
0.000000 0.000000 0.280688 In
0.000000 0.076923 0.280688 In
0.000000 0.153846 0.280688 In
0.000000 0.230769 0.280688 In
0.000000 0.307692 0.280688 In
0.000000 0.384615 0.280688 In
0.000000 0.461538 0.280688 In
0.000000 0.538462 0.280688 In
0.000000 0.615385 0.280688 In
0.000000 0.692308 0.280688 In
0.000000 0.769231 0.280688 In
0.000000 0.846154 0.280688 In
0.000000 0.923077 0.280688 In
0.000000 0.038462 0.307420 In
0.000000 0.115385 0.307420 In
0.000000 0.192308 0.307420 In
0.000000 0.269231 0.307420 In
0.000000 0.346154 0.307420 In
0.000000 0.423077 0.307420 In
0.000000 0.500000 0.307420 In
0.000000 0.576923 0.307420 In
0.000000 0.653846 0.307420 In
0.000000 0.730769 0.307420 In
0.000000 0.807692 0.307420 In
0.000000 0.884615 0.307420 In
0.000000 0.961538 0.307420 In
0.500000 0.000000 0.307420 In
0.500000 0.076923 0.307420 In
0.500000 0.153846 0.307420 In
0.500000 0.230769 0.307420 In
0.500000 0.307692 0.307420 In
0.500000 0.384615 0.307420 In
0.500000 0.461538 0.307420 In
0.500000 0.538462 0.307420 In
0.500000 0.615385 0.307420 In
0.500000 0.692308 0.307420 In
0.500000 0.769231 0.307420 In
0.500000 0.846154 0.307420 In
0.500000 0.923077 0.307420 In
0.000000 0.000000 0.334153 In
0.000000 0.076923 0.334153 In
0.000000 0.153846 0.334153 In
0.000000 0.230769 0.334153 In
0.000000 0.307692 0.334153 In
0.000000 0.384615 0.334153 In
0.000000 0.461538 0.334153 In
0.000000 0.538462 0.334153 In
0.000000 0.615385 0.334153 In
0.000000 0.692308 0.334153 In
0.000000 0.769231 0.334153 In
0.000000 0.846154 0.334153 In
0.000000 0.923077 0.334153 In
0.000000 0.038462 0.360885 In
0.000000 0.115385 0.360885 In
0.000000 0.192308 0.360885 In
0.000000 0.269231 0.360885 In
0.000000 0.346154 0.360885 In
0.000000 0.423077 0.360885 In
0.000000 0.500000 0.360885 In
0.000000 0.576923 0.360885 In
0.000000 0.653846 0.360885 In
0.000000 0.730769 0.360885 In
0.000000 0.807692 0.360885 In
0.000000 0.884615 0.360885 In
0.000000 0.961538 0.360885 In
0.500000 0.000000 0.360885 In
0.500000 0.076923 0.360885 In
0.500000 0.153846 0.360885 In
0.500000 0.230769 0.360885 In
0.500000 0.307692 0.360885 In
0.500000 0.384615 0.360885 In
0.500000 0.461538 0.360885 In
0.500000 0.538462 0.360885 In
0.500000 0.615385 0.360885 In
0.500000 0.692308 0.360885 In
0.500000 0.769231 0.360885 In
0.500000 0.846154 0.360885 In
0.500000 0.923077 0.360885 In
0.000000 0.000000 0.387617 In
0.000000 0.076923 0.387617 In
0.000000 0.153846 0.387617 In
0.000000 0.230769 0.387617 In
0.000000 0.307692 0.387617 In
0.000000 0.384615 0.387617 In
0.000000 0.461538 0.387617 In
0.000000 0.538462 0.387617 In
0.000000 0.615385 0.387617 In
0.000000 0.692308 0.387617 In
0.000000 0.769231 0.387617 In
0.000000 0.846154 0.387617 In
0.000000 0.923077 0.387617 In
0.000000 0.038462 0.414349 In
0.000000 0.115385 0.414349 In
0.000000 0.192308 0.414349 In
0.000000 0.269231 0.414349 In
0.000000 0.346154 0.414349 In
0.000000 0.423077 0.414349 In
0.000000 0.500000 0.414349 In
0.000000 0.576923 0.414349 In
0.000000 0.653846 0.414349 In
0.000000 0.730769 0.414349 In
0.000000 0.807692 0.414349 In
0.000000 0.884615 0.414349 In
0.000000 0.961538 0.414349 In
0.500000 0.000000 0.414349 In
0.500000 0.076923 0.414349 In
0.500000 0.153846 0.414349 In
0.500000 0.230769 0.414349 In
0.500000 0.307692 0.414349 In
0.500000 0.384615 0.414349 In
0.500000 0.461538 0.414349 In
0.500000 0.538462 0.414349 In
0.500000 0.615385 0.414349 In
0.500000 0.692308 0.414349 In
0.500000 0.769231 0.414349 In
0.500000 0.846154 0.414349 In
0.500000 0.923077 0.414349 In
0.000000 0.000000 0.441082 In
0.000000 0.076923 0.441082 In
0.000000 0.153846 0.441082 In
0.000000 0.230769 0.441082 In
0.000000 0.307692 0.441082 In
0.000000 0.384615 0.441082 In
0.000000 0.461538 0.441082 In
0.000000 0.538462 0.441082 In
0.000000 0.615385 0.441082 In
0.000000 0.692308 0.441082 In
0.000000 0.769231 0.441082 In
0.000000 0.846154 0.441082 In
0.000000 0.923077 0.441082 In
0.000000 0.038462 0.467814 In
0.000000 0.115385 0.467814 In
0.000000 0.192308 0.467814 In
0.000000 0.269231 0.467814 In
0.000000 0.346154 0.467814 In
0.000000 0.423077 0.467814 In
0.000000 0.500000 0.467814 In
0.000000 0.576923 0.467814 In
0.000000 0.653846 0.467814 In
0.000000 0.730769 0.467814 In
0.000000 0.807692 0.467814 In
0.000000 0.884615 0.467814 In
0.000000 0.961538 0.467814 In
0.500000 0.000000 0.467814 In
0.500000 0.076923 0.467814 In
0.500000 0.153846 0.467814 In
0.500000 0.230769 0.467814 In
0.500000 0.307692 0.467814 In
0.500000 0.384615 0.467814 In
0.500000 0.461538 0.467814 In
0.500000 0.538462 0.467814 In
0.500000 0.615385 0.467814 In
0.500000 0.692308 0.467814 In
0.500000 0.769231 0.467814 In
0.500000 0.846154 0.467814 In
0.500000 0.923077 0.467814 In
0.000000 0.000000 0.494546 In
0.000000 0.076923 0.494546 In
0.000000 0.153846 0.494546 In
0.000000 0.230769 0.494546 In