In80 Fe210 Sb80
1.0
12.958800 0.000000 0.000000
0.000000 23.731674 0.000000
0.000000 0.000000 28.976758
In Fe Sb
80 210 80
direct
0.000000 0.061051 0.310000 In
0.000000 0.061051 0.810000 In
0.500000 0.061051 0.310000 In
0.500000 0.061051 0.810000 In
0.250000 0.000000 0.410000 In
0.250000 0.000000 0.910000 In
0.750000 0.000000 0.410000 In
0.750000 0.000000 0.910000 In
0.250000 0.061051 0.060000 In
0.250000 0.061051 0.560000 In
0.750000 0.061051 0.060000 In
0.750000 0.061051 0.560000 In
0.000000 0.000000 0.160000 In
0.000000 0.000000 0.660000 In
0.500000 0.000000 0.160000 In
0.500000 0.000000 0.660000 In
0.000000 0.183152 0.110000 In
0.000000 0.183152 0.610000 In
0.500000 0.183152 0.110000 In
0.500000 0.183152 0.610000 In
0.250000 0.122102 0.210000 In
0.250000 0.122102 0.710000 In
0.750000 0.122102 0.210000 In
0.750000 0.122102 0.710000 In
0.250000 0.183152 0.360000 In
0.250000 0.183152 0.860000 In
0.750000 0.183152 0.360000 In
0.750000 0.183152 0.860000 In
0.000000 0.122102 0.460000 In
0.000000 0.122102 0.960000 In
0.500000 0.122102 0.460000 In
0.500000 0.122102 0.960000 In
0.000000 0.305254 0.410000 In
0.000000 0.305254 0.910000 In
0.500000 0.305254 0.410000 In
0.500000 0.305254 0.910000 In
0.250000 0.244203 0.010000 In
0.250000 0.244203 0.510000 In
0.750000 0.244203 0.010000 In
0.750000 0.244203 0.510000 In
0.250000 0.305254 0.160000 In
0.250000 0.305254 0.660000 In
0.750000 0.305254 0.160000 In
0.750000 0.305254 0.660000 In
0.000000 0.244203 0.260000 In
0.000000 0.244203 0.760000 In
0.500000 0.244203 0.260000 In
0.500000 0.244203 0.760000 In
0.000000 0.427356 0.210000 In
0.000000 0.427356 0.710000 In
0.500000 0.427356 0.210000 In
0.500000 0.427356 0.710000 In
0.250000 0.366305 0.310000 In
0.250000 0.366305 0.810000 In
0.750000 0.366305 0.310000 In
0.750000 0.366305 0.810000 In
0.250000 0.427356 0.460000 In
0.250000 0.427356 0.960000 In
0.750000 0.427356 0.460000 In
0.750000 0.427356 0.960000 In
0.000000 0.366305 0.060000 In
0.000000 0.366305 0.560000 In
0.500000 0.366305 0.060000 In
0.500000 0.366305 0.560000 In
0.000000 0.549457 0.010000 In
0.000000 0.549457 0.510000 In
0.500000 0.549457 0.010000 In
0.500000 0.549457 0.510000 In
0.250000 0.488406 0.110000 In
0.250000 0.488406 0.610000 In
0.750000 0.488406 0.110000 In
0.750000 0.488406 0.610000 In
0.250000 0.549457 0.260000 In
0.250000 0.549457 0.760000 In
0.750000 0.549457 0.260000 In
0.750000 0.549457 0.760000 In
0.000000 0.488406 0.360000 In
0.000000 0.488406 0.860000 In
0.500000 0.488406 0.360000 In
0.500000 0.488406 0.860000 In
0.228571 0.699690 0.182857 Fe
0.466667 0.699690 0.373333 Fe
0.704762 0.699690 0.563810 Fe
0.942857 0.699690 0.754286 Fe
0.180952 0.699690 0.944762 Fe
0.419048 0.699690 0.135238 Fe
0.657143 0.699690 0.325714 Fe
0.895238 0.699690 0.516190 Fe
0.133333 0.699690 0.706667 Fe
0.371429 0.699690 0.897143 Fe
0.609524 0.699690 0.087619 Fe
0.847619 0.699690 0.278095 Fe
0.085714 0.699690 0.468571 Fe
0.323810 0.699690 0.659048 Fe
0.561905 0.699690 0.849524 Fe
0.800000 0.699690 0.040000 Fe
0.038095 0.699690 0.230476 Fe
0.276190 0.699690 0.420952 Fe
0.514286 0.699690 0.611429 Fe
0.752381 0.699690 0.801905 Fe
0.990476 0.699690 0.992381 Fe
0.061905 0.672686 0.149524 Fe
0.300000 0.672686 0.340000 Fe
0.538095 0.672686 0.530476 Fe
0.776190 0.672686 0.720952 Fe
0.014286 0.672686 0.911429 Fe
0.252381 0.672686 0.101905 Fe
0.490476 0.672686 0.292381 Fe
0.728571 0.672686 0.482857 Fe
0.966667 0.672686 0.673333 Fe
0.204762 0.672686 0.863810 Fe
0.442857 0.672686 0.054286 Fe
0.680952 0.672686 0.244762 Fe
0.919048 0.672686 0.435238 Fe
0.157143 0.672686 0.625714 Fe
0.395238 0.672686 0.816190 Fe
0.633333 0.672686 0.006667 Fe
0.871429 0.672686 0.197143 Fe
0.109524 0.672686 0.387619 Fe
0.347619 0.672686 0.578095 Fe
0.585714 0.672686 0.768571 Fe
0.823810 0.672686 0.959048 Fe
0.133333 0.753699 0.106667 Fe
0.371429 0.753699 0.297143 Fe
0.609524 0.753699 0.487619 Fe
0.847619 0.753699 0.678095 Fe
0.085714 0.753699 0.868571 Fe
0.323810 0.753699 0.059048 Fe
0.561905 0.753699 0.249524 Fe
0.800000 0.753699 0.440000 Fe
0.038095 0.753699 0.630476 Fe
0.276190 0.753699 0.820952 Fe
0.514286 0.753699 0.011429 Fe
0.752381 0.753699 0.201905 Fe
0.990476 0.753699 0.392381 Fe
0.228571 0.753699 0.582857 Fe
0.466667 0.753699 0.773333 Fe
0.704762 0.753699 0.963810 Fe
0.942857 0.753699 0.154286 Fe
0.180952 0.753699 0.344762 Fe
0.419048 0.753699 0.535238 Fe
0.657143 0.753699 0.725714 Fe
0.895238 0.753699 0.916190 Fe
0.966667 0.726694 0.073333 Fe
0.204762 0.726694 0.263810 Fe
0.442857 0.726694 0.454286 Fe
0.680952 0.726694 0.644762 Fe
0.919048 0.726694 0.835238 Fe
0.157143 0.726694 0.025714 Fe
0.395238 0.726694 0.216190 Fe
0.633333 0.726694 0.406667 Fe
0.871429 0.726694 0.597143 Fe
0.109524 0.726694 0.787619 Fe
0.347619 0.726694 0.978095 Fe
0.585714 0.726694 0.168571 Fe
0.823810 0.726694 0.359048 Fe
0.061905 0.726694 0.549524 Fe
0.300000 0.726694 0.740000 Fe
0.538095 0.726694 0.930476 Fe
0.776190 0.726694 0.120952 Fe
0.014286 0.726694 0.311429 Fe
0.252381 0.726694 0.501905 Fe
0.490476 0.726694 0.692381 Fe
0.728571 0.726694 0.882857 Fe
0.038095 0.807707 0.030476 Fe
0.276190 0.807707 0.220952 Fe
0.514286 0.807707 0.411429 Fe
0.752381 0.807707 0.601905 Fe
0.990476 0.807707 0.792381 Fe
0.228571 0.807707 0.982857 Fe
0.466667 0.807707 0.173333 Fe
0.704762 0.807707 0.363810 Fe
0.942857 0.807707 0.554286 Fe
0.180952 0.807707 0.744762 Fe
0.419048 0.807707 0.935238 Fe
0.657143 0.807707 0.125714 Fe
0.895238 0.807707 0.316190 Fe
0.133333 0.807707 0.506667 Fe
0.371429 0.807707 0.697143 Fe
0.609524 0.807707 0.887619 Fe
0.847619 0.807707 0.078095 Fe
0.085714 0.807707 0.268571 Fe
0.323810 0.807707 0.459048 Fe
0.561905 0.807707 0.649524 Fe
0.800000 0.807707 0.840000 Fe
0.109524 0.780703 0.187619 Fe
0.347619 0.780703 0.378095 Fe
0.585714 0.780703 0.568571 Fe
0.823810 0.780703 0.759048 Fe
0.061905 0.780703 0.949524 Fe
0.300000 0.780703 0.140000 Fe
0.538095 0.780703 0.330476 Fe
0.776190 0.780703 0.520952 Fe
0.014286 0.780703 0.711429 Fe
0.252381 0.780703 0.901905 Fe
0.490476 0.780703 0.092381 Fe
0.728571 0.780703 0.282857 Fe
0.966667 0.780703 0.473333 Fe
0.204762 0.780703 0.663810 Fe
0.442857 0.780703 0.854286 Fe
0.680952 0.780703 0.044762 Fe
0.919048 0.780703 0.235238 Fe
0.157143 0.780703 0.425714 Fe
0.395238 0.780703 0.616190 Fe
0.633333 0.780703 0.806667 Fe
0.871429 0.780703 0.997143 Fe
0.180952 0.861716 0.144762 Fe
0.419048 0.861716 0.335238 Fe
0.657143 0.861716 0.525714 Fe
0.895238 0.861716 0.716190 Fe
0.133333 0.861716 0.906667 Fe
0.371429 0.861716 0.097143 Fe
0.609524 0.861716 0.287619 Fe
0.847619 0.861716 0.478095 Fe
0.085714 0.861716 0.668571 Fe
0.323810 0.861716 0.859048 Fe
0.561905 0.861716 0.049524 Fe
0.800000 0.861716 0.240000 Fe
0.038095 0.861716 0.430476 Fe
0.276190 0.861716 0.620952 Fe
0.514286 0.861716 0.811429 Fe
0.752381 0.861716 0.001905 Fe
0.990476 0.861716 0.192381 Fe
0.228571 0.861716 0.382857 Fe
0.466667 0.861716 0.573333 Fe
0.704762 0.861716 0.763810 Fe
0.942857 0.861716 0.954286 Fe
0.014286 0.834712 0.111429 Fe
0.252381 0.834712 0.301905 Fe
0.490476 0.834712 0.492381 Fe
0.728571 0.834712 0.682857 Fe
0.966667 0.834712 0.873333 Fe
0.204762 0.834712 0.063810 Fe
0.442857 0.834712 0.254286 Fe
0.680952 0.834712 0.444762 Fe
0.919048 0.834712 0.635238 Fe
0.157143 0.834712 0.825714 Fe
0.395238 0.834712 0.016190 Fe
0.633333 0.834712 0.206667 Fe
0.871429 0.834712 0.397143 Fe
0.109524 0.834712 0.587619 Fe
0.347619 0.834712 0.778095 Fe
0.585714 0.834712 0.968571 Fe
0.823810 0.834712 0.159048 Fe
0.061905 0.834712 0.349524 Fe
0.300000 0.834712 0.540000 Fe
0.538095 0.834712 0.730476 Fe
0.776190 0.834712 0.920952 Fe
0.085714 0.915724 0.068571 Fe
0.323810 0.915724 0.259048 Fe
0.561905 0.915724 0.449524 Fe
0.800000 0.915724 0.640000 Fe
0.038095 0.915724 0.830476 Fe
0.276190 0.915724 0.020952 Fe
0.514286 0.915724 0.211429 Fe
0.752381 0.915724 0.401905 Fe
0.990476 0.915724 0.592381 Fe
0.228571 0.915724 0.782857 Fe
0.466667 0.915724 0.973333 Fe
0.704762 0.915724 0.163810 Fe
0.942857 0.915724 0.354286 Fe
0.180952 0.915724 0.544762 Fe
0.419048 0.915724 0.735238 Fe
0.657143 0.915724 0.925714 Fe
0.895238 0.915724 0.116190 Fe
0.133333 0.915724 0.306667 Fe
0.371429 0.915724 0.497143 Fe
0.609524 0.915724 0.687619 Fe
0.847619 0.915724 0.878095 Fe
0.919048 0.888720 0.035238 Fe
0.157143 0.888720 0.225714 Fe
0.395238 0.888720 0.416190 Fe
0.633333 0.888720 0.606667 Fe
0.871429 0.888720 0.797143 Fe
0.109524 0.888720 0.987619 Fe
0.347619 0.888720 0.178095 Fe
0.585714 0.888720 0.368571 Fe
0.823810 0.888720 0.559048 Fe
0.061905 0.888720 0.749524 Fe
0.300000 0.888720 0.940000 Fe
0.538095 0.888720 0.130476 Fe
0.776190 0.888720 0.320952 Fe
0.014286 0.888720 0.511429 Fe
0.252381 0.888720 0.701905 Fe
0.490476 0.888720 0.892381 Fe
0.728571 0.888720 0.082857 Fe
0.966667 0.888720 0.273333 Fe
0.204762 0.888720 0.463810 Fe
0.442857 0.888720 0.654286 Fe
0.680952 0.888720 0.844762 Fe
0.375000 0.030525 0.485000 Sb
0.375000 0.030525 0.985000 Sb
0.875000 0.030525 0.485000 Sb
0.875000 0.030525 0.985000 Sb
0.125000 0.091576 0.385000 Sb
0.125000 0.091576 0.885000 Sb
0.625000 0.091576 0.385000 Sb
0.625000 0.091576 0.885000 Sb
0.125000 0.030525 0.235000 Sb
0.125000 0.030525 0.735000 Sb
0.625000 0.030525 0.235000 Sb
0.625000 0.030525 0.735000 Sb
0.375000 0.091576 0.135000 Sb
0.375000 0.091576 0.635000 Sb
0.875000 0.091576 0.135000 Sb
0.875000 0.091576 0.635000 Sb
0.375000 0.152627 0.285000 Sb
0.375000 0.152627 0.785000 Sb
0.875000 0.152627 0.285000 Sb
0.875000 0.152627 0.785000 Sb
0.125000 0.213678 0.185000 Sb
0.125000 0.213678 0.685000 Sb
0.625000 0.213678 0.185000 Sb
0.625000 0.213678 0.685000 Sb
0.125000 0.152627 0.035000 Sb
0.125000 0.152627 0.535000 Sb
0.625000 0.152627 0.035000 Sb
0.625000 0.152627 0.535000 Sb
0.375000 0.213678 0.435000 Sb
0.375000 0.213678 0.935000 Sb
0.875000 0.213678 0.435000 Sb
0.875000 0.213678 0.935000 Sb
0.375000 0.274729 0.085000 Sb
0.375000 0.274729 0.585000 Sb
0.875000 0.274729 0.085000 Sb
0.875000 0.274729 0.585000 Sb
0.125000 0.335779 0.485000 Sb
0.125000 0.335779 0.985000 Sb
0.625000 0.335779 0.485000 Sb
0.625000 0.335779 0.985000 Sb
0.125000 0.274729 0.335000 Sb
0.125000 0.274729 0.835000 Sb
0.625000 0.274729 0.335000 Sb
0.625000 0.274729 0.835000 Sb
0.375000 0.335779 0.235000 Sb
0.375000 0.335779 0.735000 Sb
0.875000 0.335779 0.235000 Sb
0.875000 0.335779 0.735000 Sb
0.375000 0.396830 0.385000 Sb
0.375000 0.396830 0.885000 Sb
0.875000 0.396830 0.385000 Sb
0.875000 0.396830 0.885000 Sb
0.125000 0.457881 0.285000 Sb
0.125000 0.457881 0.785000 Sb
0.625000 0.457881 0.285000 Sb
0.625000 0.457881 0.785000 Sb
0.125000 0.396830 0.135000 Sb
0.125000 0.396830 0.635000 Sb
0.625000 0.396830 0.135000 Sb
0.625000 0.396830 0.635000 Sb
0.375000 0.457881 0.035000 Sb
0.375000 0.457881 0.535000 Sb
0.875000 0.457881 0.035000 Sb
0.875000 0.457881 0.535000 Sb
0.375000 0.518932 0.185000 Sb
0.375000 0.518932 0.685000 Sb
0.875000 0.518932 0.185000 Sb
0.875000 0.518932 0.685000 Sb
0.125000 0.579983 0.085000 Sb
0.125000 0.579983 0.585000 Sb
0.625000 0.579983 0.085000 Sb
0.625000 0.579983 0.585000 Sb
0.125000 0.518932 0.435000 Sb
0.125000 0.518932 0.935000 Sb
0.625000 0.518932 0.435000 Sb
0.625000 0.518932 0.935000 Sb
0.375000 0.579983 0.335000 Sb
0.375000 0.579983 0.835000 Sb
0.875000 0.579983 0.335000 Sb
0.875000 0.579983 0.835000 Sb
