In80 Fe210 Sb80
1.0
12.958800 0.000000 0.000000
0.000000 23.731674 0.000000
0.000000 0.000000 28.976758
In Fe Sb
80 210 80
direct
0.000000 0.061051 0.310000 In
0.000000 0.061051 0.810000 In
0.500000 0.061051 0.310000 In
0.500000 0.061051 0.810000 In
0.250000 0.000000 0.410000 In
0.250000 0.000000 0.910000 In
0.750000 0.000000 0.410000 In
0.750000 0.000000 0.910000 In
0.250000 0.061051 0.060000 In
0.250000 0.061051 0.560000 In
0.750000 0.061051 0.060000 In
0.750000 0.061051 0.560000 In
0.000000 0.000000 0.160000 In
0.000000 0.000000 0.660000 In
0.500000 0.000000 0.160000 In
0.500000 0.000000 0.660000 In
0.000000 0.183152 0.110000 In
0.000000 0.183152 0.610000 In
0.500000 0.183152 0.110000 In
0.500000 0.183152 0.610000 In
0.250000 0.122102 0.210000 In
0.250000 0.122102 0.710000 In
0.750000 0.122102 0.210000 In
0.750000 0.122102 0.710000 In
0.250000 0.183152 0.360000 In
0.250000 0.183152 0.860000 In
0.750000 0.183152 0.360000 In
0.750000 0.183152 0.860000 In
0.000000 0.122102 0.460000 In
0.000000 0.122102 0.960000 In
0.500000 0.122102 0.460000 In
0.500000 0.122102 0.960000 In
0.000000 0.305254 0.410000 In
0.000000 0.305254 0.910000 In
0.500000 0.305254 0.410000 In
0.500000 0.305254 0.910000 In
0.250000 0.244203 0.010000 In
0.250000 0.244203 0.510000 In
0.750000 0.244203 0.010000 In
0.750000 0.244203 0.510000 In
0.250000 0.305254 0.160000 In
0.250000 0.305254 0.660000 In
0.750000 0.305254 0.160000 In
0.750000 0.305254 0.660000 In
0.000000 0.244203 0.260000 In
0.000000 0.244203 0.760000 In
0.500000 0.244203 0.260000 In
0.500000 0.244203 0.760000 In
0.000000 0.427356 0.210000 In
0.000000 0.427356 0.710000 In
0.500000 0.427356 0.210000 In
0.500000 0.427356 0.710000 In
0.250000 0.366305 0.310000 In
0.250000 0.366305 0.810000 In
0.750000 0.366305 0.310000 In
0.750000 0.366305 0.810000 In
0.250000 0.427356 0.460000 In
0.250000 0.427356 0.960000 In
0.750000 0.427356 0.460000 In
0.750000 0.427356 0.960000 In
0.000000 0.366305 0.060000 In
0.000000 0.366305 0.560000 In
0.500000 0.366305 0.060000 In
0.500000 0.366305 0.560000 In
0.000000 0.549457 0.010000 In
0.000000 0.549457 0.510000 In
0.500000 0.549457 0.010000 In
0.500000 0.549457 0.510000 In
0.250000 0.488406 0.110000 In
0.250000 0.488406 0.610000 In
0.750000 0.488406 0.110000 In
0.750000 0.488406 0.610000 In
0.250000 0.549457 0.260000 In
0.250000 0.549457 0.760000 In
0.750000 0.549457 0.260000 In
0.750000 0.549457 0.760000 In
0.000000 0.488406 0.360000 In
0.000000 0.488406 0.860000 In
0.500000 0.488406 0.360000 In
0.500000 0.488406 0.860000 In
0.457143 0.699690 0.045714 Fe
0.933333 0.699690 0.093333 Fe
0.409524 0.699690 0.140952 Fe
0.885714 0.699690 0.188571 Fe
0.361905 0.699690 0.236190 Fe
0.838095 0.699690 0.283810 Fe
0.314286 0.699690 0.331429 Fe
0.790476 0.699690 0.379048 Fe
0.266667 0.699690 0.426667 Fe
0.742857 0.699690 0.474286 Fe
0.219048 0.699690 0.521905 Fe
0.695238 0.699690 0.569524 Fe
0.171429 0.699690 0.617143 Fe
0.647619 0.699690 0.664762 Fe
0.123810 0.699690 0.712381 Fe
0.600000 0.699690 0.760000 Fe
0.076190 0.699690 0.807619 Fe
0.552381 0.699690 0.855238 Fe
0.028571 0.699690 0.902857 Fe
0.504762 0.699690 0.950476 Fe
0.980952 0.699690 0.998095 Fe
0.338095 0.672686 0.983810 Fe
0.814286 0.672686 0.031429 Fe
0.290476 0.672686 0.079048 Fe
0.766667 0.672686 0.126667 Fe
0.242857 0.672686 0.174286 Fe
0.719048 0.672686 0.221905 Fe
0.195238 0.672686 0.269524 Fe
0.671429 0.672686 0.317143 Fe
0.147619 0.672686 0.364762 Fe
0.623810 0.672686 0.412381 Fe
0.100000 0.672686 0.460000 Fe
0.576190 0.672686 0.507619 Fe
0.052381 0.672686 0.555238 Fe
0.528571 0.672686 0.602857 Fe
0.004762 0.672686 0.650476 Fe
0.480952 0.672686 0.698095 Fe
0.957143 0.672686 0.745714 Fe
0.433333 0.672686 0.793333 Fe
0.909524 0.672686 0.840952 Fe
0.385714 0.672686 0.888571 Fe
0.861905 0.672686 0.936190 Fe
0.266667 0.753699 0.026667 Fe
0.742857 0.753699 0.074286 Fe
0.219048 0.753699 0.121905 Fe
0.695238 0.753699 0.169524 Fe
0.171429 0.753699 0.217143 Fe
0.647619 0.753699 0.264762 Fe
0.123810 0.753699 0.312381 Fe
0.600000 0.753699 0.360000 Fe
0.076190 0.753699 0.407619 Fe
0.552381 0.753699 0.455238 Fe
0.028571 0.753699 0.502857 Fe
0.504762 0.753699 0.550476 Fe
0.980952 0.753699 0.598095 Fe
0.457143 0.753699 0.645714 Fe
0.933333 0.753699 0.693333 Fe
0.409524 0.753699 0.740952 Fe
0.885714 0.753699 0.788571 Fe
0.361905 0.753699 0.836190 Fe
0.838095 0.753699 0.883810 Fe
0.314286 0.753699 0.931429 Fe
0.790476 0.753699 0.979048 Fe
0.147619 0.726694 0.964762 Fe
0.623810 0.726694 0.012381 Fe
0.100000 0.726694 0.060000 Fe
0.576190 0.726694 0.107619 Fe
0.052381 0.726694 0.155238 Fe
0.528571 0.726694 0.202857 Fe
0.004762 0.726694 0.250476 Fe
0.480952 0.726694 0.298095 Fe
0.957143 0.726694 0.345714 Fe
0.433333 0.726694 0.393333 Fe
0.909524 0.726694 0.440952 Fe
0.385714 0.726694 0.488571 Fe
0.861905 0.726694 0.536190 Fe
0.338095 0.726694 0.583810 Fe
0.814286 0.726694 0.631429 Fe
0.290476 0.726694 0.679048 Fe
0.766667 0.726694 0.726667 Fe
0.242857 0.726694 0.774286 Fe
0.719048 0.726694 0.821905 Fe
0.195238 0.726694 0.869524 Fe
0.671429 0.726694 0.917143 Fe
0.076190 0.807707 0.007619 Fe
0.552381 0.807707 0.055238 Fe
0.028571 0.807707 0.102857 Fe
0.504762 0.807707 0.150476 Fe
0.980952 0.807707 0.198095 Fe
0.457143 0.807707 0.245714 Fe
0.933333 0.807707 0.293333 Fe
0.409524 0.807707 0.340952 Fe
0.885714 0.807707 0.388571 Fe
0.361905 0.807707 0.436190 Fe
0.838095 0.807707 0.483810 Fe
0.314286 0.807707 0.531429 Fe
0.790476 0.807707 0.579048 Fe
0.266667 0.807707 0.626667 Fe
0.742857 0.807707 0.674286 Fe
0.219048 0.807707 0.721905 Fe
0.695238 0.807707 0.769524 Fe
0.171429 0.807707 0.817143 Fe
0.647619 0.807707 0.864762 Fe
0.123810 0.807707 0.912381 Fe
0.600000 0.807707 0.960000 Fe
0.433333 0.780703 0.993333 Fe
0.909524 0.780703 0.040952 Fe
0.385714 0.780703 0.088571 Fe
0.861905 0.780703 0.136190 Fe
0.338095 0.780703 0.183810 Fe
0.814286 0.780703 0.231429 Fe
0.290476 0.780703 0.279048 Fe
0.766667 0.780703 0.326667 Fe
0.242857 0.780703 0.374286 Fe
0.719048 0.780703 0.421905 Fe
0.195238 0.780703 0.469524 Fe
0.671429 0.780703 0.517143 Fe
0.147619 0.780703 0.564762 Fe
0.623810 0.780703 0.612381 Fe
0.100000 0.780703 0.660000 Fe
0.576190 0.780703 0.707619 Fe
0.052381 0.780703 0.755238 Fe
0.528571 0.780703 0.802857 Fe
0.004762 0.780703 0.850476 Fe
0.480952 0.780703 0.898095 Fe
0.957143 0.780703 0.945714 Fe
0.361905 0.861716 0.036190 Fe
0.838095 0.861716 0.083810 Fe
0.314286 0.861716 0.131429 Fe
0.790476 0.861716 0.179048 Fe
0.266667 0.861716 0.226667 Fe
0.742857 0.861716 0.274286 Fe
0.219048 0.861716 0.321905 Fe
0.695238 0.861716 0.369524 Fe
0.171429 0.861716 0.417143 Fe
0.647619 0.861716 0.464762 Fe
0.123810 0.861716 0.512381 Fe
0.600000 0.861716 0.560000 Fe
0.076190 0.861716 0.607619 Fe
0.552381 0.861716 0.655238 Fe
0.028571 0.861716 0.702857 Fe
0.504762 0.861716 0.750476 Fe
0.980952 0.861716 0.798095 Fe
0.457143 0.861716 0.845714 Fe
0.933333 0.861716 0.893333 Fe
0.409524 0.861716 0.940952 Fe
0.885714 0.861716 0.988571 Fe
0.242857 0.834712 0.974286 Fe
0.719048 0.834712 0.021905 Fe
0.195238 0.834712 0.069524 Fe
0.671429 0.834712 0.117143 Fe
0.147619 0.834712 0.164762 Fe
0.623810 0.834712 0.212381 Fe
0.100000 0.834712 0.260000 Fe
0.576190 0.834712 0.307619 Fe
0.052381 0.834712 0.355238 Fe
0.528571 0.834712 0.402857 Fe
0.004762 0.834712 0.450476 Fe
0.480952 0.834712 0.498095 Fe
0.957143 0.834712 0.545714 Fe
0.433333 0.834712 0.593333 Fe
0.909524 0.834712 0.640952 Fe
0.385714 0.834712 0.688571 Fe
0.861905 0.834712 0.736190 Fe
0.338095 0.834712 0.783810 Fe
0.814286 0.834712 0.831429 Fe
0.290476 0.834712 0.879048 Fe
0.766667 0.834712 0.926667 Fe
0.171429 0.915724 0.017143 Fe
0.647619 0.915724 0.064762 Fe
0.123810 0.915724 0.112381 Fe
0.600000 0.915724 0.160000 Fe
0.076190 0.915724 0.207619 Fe
0.552381 0.915724 0.255238 Fe
0.028571 0.915724 0.302857 Fe
0.504762 0.915724 0.350476 Fe
0.980952 0.915724 0.398095 Fe
0.457143 0.915724 0.445714 Fe
0.933333 0.915724 0.493333 Fe
0.409524 0.915724 0.540952 Fe
0.885714 0.915724 0.588571 Fe
0.361905 0.915724 0.636190 Fe
0.838095 0.915724 0.683810 Fe
0.314286 0.915724 0.731429 Fe
0.790476 0.915724 0.779048 Fe
0.266667 0.915724 0.826667 Fe
0.742857 0.915724 0.874286 Fe
0.219048 0.915724 0.921905 Fe
0.695238 0.915724 0.969524 Fe
0.052381 0.888720 0.955238 Fe
0.528571 0.888720 0.002857 Fe
0.004762 0.888720 0.050476 Fe
0.480952 0.888720 0.098095 Fe
0.957143 0.888720 0.145714 Fe
0.433333 0.888720 0.193333 Fe
0.909524 0.888720 0.240952 Fe
0.385714 0.888720 0.288571 Fe
0.861905 0.888720 0.336190 Fe
0.338095 0.888720 0.383810 Fe
0.814286 0.888720 0.431429 Fe
0.290476 0.888720 0.479048 Fe
0.766667 0.888720 0.526667 Fe
0.242857 0.888720 0.574286 Fe
0.719048 0.888720 0.621905 Fe
0.195238 0.888720 0.669524 Fe
0.671429 0.888720 0.717143 Fe
0.147619 0.888720 0.764762 Fe
0.623810 0.888720 0.812381 Fe
0.100000 0.888720 0.860000 Fe
0.576190 0.888720 0.907619 Fe
0.375000 0.030525 0.485000 Sb
0.375000 0.030525 0.985000 Sb
0.875000 0.030525 0.485000 Sb
0.875000 0.030525 0.985000 Sb
0.125000 0.091576 0.385000 Sb
0.125000 0.091576 0.885000 Sb
0.625000 0.091576 0.385000 Sb
0.625000 0.091576 0.885000 Sb
0.125000 0.030525 0.235000 Sb
0.125000 0.030525 0.735000 Sb
0.625000 0.030525 0.235000 Sb
0.625000 0.030525 0.735000 Sb
0.375000 0.091576 0.135000 Sb
0.375000 0.091576 0.635000 Sb
0.875000 0.091576 0.135000 Sb
0.875000 0.091576 0.635000 Sb
0.375000 0.152627 0.285000 Sb
0.375000 0.152627 0.785000 Sb
0.875000 0.152627 0.285000 Sb
0.875000 0.152627 0.785000 Sb
0.125000 0.213678 0.185000 Sb
0.125000 0.213678 0.685000 Sb
0.625000 0.213678 0.185000 Sb
0.625000 0.213678 0.685000 Sb
0.125000 0.152627 0.035000 Sb
0.125000 0.152627 0.535000 Sb
0.625000 0.152627 0.035000 Sb
0.625000 0.152627 0.535000 Sb
0.375000 0.213678 0.435000 Sb
0.375000 0.213678 0.935000 Sb
0.875000 0.213678 0.435000 Sb
0.875000 0.213678 0.935000 Sb
0.375000 0.274729 0.085000 Sb
0.375000 0.274729 0.585000 Sb
0.875000 0.274729 0.085000 Sb
0.875000 0.274729 0.585000 Sb
0.125000 0.335779 0.485000 Sb
0.125000 0.335779 0.985000 Sb
0.625000 0.335779 0.485000 Sb
0.625000 0.335779 0.985000 Sb
0.125000 0.274729 0.335000 Sb
0.125000 0.274729 0.835000 Sb
0.625000 0.274729 0.335000 Sb
0.625000 0.274729 0.835000 Sb
0.375000 0.335779 0.235000 Sb
0.375000 0.335779 0.735000 Sb
0.875000 0.335779 0.235000 Sb
0.875000 0.335779 0.735000 Sb
0.375000 0.396830 0.385000 Sb
0.375000 0.396830 0.885000 Sb
0.875000 0.396830 0.385000 Sb
0.875000 0.396830 0.885000 Sb
0.125000 0.457881 0.285000 Sb
0.125000 0.457881 0.785000 Sb
0.625000 0.457881 0.285000 Sb
0.625000 0.457881 0.785000 Sb
0.125000 0.396830 0.135000 Sb
0.125000 0.396830 0.635000 Sb
0.625000 0.396830 0.135000 Sb
0.625000 0.396830 0.635000 Sb
0.375000 0.457881 0.035000 Sb
0.375000 0.457881 0.535000 Sb
0.875000 0.457881 0.035000 Sb
0.875000 0.457881 0.535000 Sb
0.375000 0.518932 0.185000 Sb
0.375000 0.518932 0.685000 Sb
0.875000 0.518932 0.185000 Sb
0.875000 0.518932 0.685000 Sb
0.125000 0.579983 0.085000 Sb
0.125000 0.579983 0.585000 Sb
0.625000 0.579983 0.085000 Sb
0.625000 0.579983 0.585000 Sb
0.125000 0.518932 0.435000 Sb
0.125000 0.518932 0.935000 Sb
0.625000 0.518932 0.435000 Sb
0.625000 0.518932 0.935000 Sb
0.375000 0.579983 0.335000 Sb
0.375000 0.579983 0.835000 Sb
0.875000 0.579983 0.335000 Sb
0.875000 0.579983 0.835000 Sb
