Al160 In90 Ga30 As120
1.0
5.711910 0.000000 0.000000
0.000000 19.786635 0.000000
0.000000 0.000000 111.101896
Al In Ga As
160 90 30 120
direct
0.500000 0.250000 0.541080 Al
0.000000 0.500000 0.541080 Al
0.500000 0.750000 0.541080 Al
0.000000 0.000000 0.541080 Al
0.250000 0.125000 0.541080 Al
0.750000 0.375000 0.541080 Al
0.250000 0.625000 0.541080 Al
0.750000 0.875000 0.541080 Al
0.000000 0.250000 0.541080 Al
0.500000 0.500000 0.541080 Al
0.000000 0.750000 0.541080 Al
0.500000 0.000000 0.541080 Al
0.750000 0.125000 0.541080 Al
0.250000 0.375000 0.541080 Al
0.750000 0.625000 0.541080 Al
0.250000 0.875000 0.541080 Al
0.000000 0.166667 0.562069 Al
0.500000 0.416667 0.562069 Al
0.000000 0.666667 0.562069 Al
0.500000 0.916667 0.562069 Al
0.750000 0.041667 0.562069 Al
0.250000 0.291667 0.562069 Al
0.750000 0.541667 0.562069 Al
0.250000 0.791667 0.562069 Al
0.500000 0.166667 0.562069 Al
0.000000 0.416667 0.562069 Al
0.500000 0.666667 0.562069 Al
0.000000 0.916667 0.562069 Al
0.250000 0.041667 0.562069 Al
0.750000 0.291667 0.562069 Al
0.250000 0.541667 0.562069 Al
0.750000 0.791667 0.562069 Al
0.500000 0.083333 0.583057 Al
0.000000 0.333333 0.583057 Al
0.500000 0.583333 0.583057 Al
0.000000 0.833333 0.583057 Al
0.750000 0.208333 0.583057 Al
0.250000 0.458333 0.583057 Al
0.750000 0.708333 0.583057 Al
0.250000 0.958333 0.583057 Al
0.000000 0.083333 0.583057 Al
0.500000 0.333333 0.583057 Al
0.000000 0.583333 0.583057 Al
0.500000 0.833333 0.583057 Al
0.250000 0.208333 0.583057 Al
0.750000 0.458333 0.583057 Al
0.250000 0.708333 0.583057 Al
0.750000 0.958333 0.583057 Al
0.500000 0.250000 0.604046 Al
0.000000 0.500000 0.604046 Al
0.500000 0.750000 0.604046 Al
0.000000 0.000000 0.604046 Al
0.250000 0.125000 0.604046 Al
0.750000 0.375000 0.604046 Al
0.250000 0.625000 0.604046 Al
0.750000 0.875000 0.604046 Al
0.000000 0.250000 0.604046 Al
0.500000 0.500000 0.604046 Al
0.000000 0.750000 0.604046 Al
0.500000 0.000000 0.604046 Al
0.750000 0.125000 0.604046 Al
0.250000 0.375000 0.604046 Al
0.750000 0.625000 0.604046 Al
0.250000 0.875000 0.604046 Al
0.000000 0.166667 0.625034 Al
0.500000 0.416667 0.625034 Al
0.000000 0.666667 0.625034 Al
0.500000 0.916667 0.625034 Al
0.750000 0.041667 0.625034 Al
0.250000 0.291667 0.625034 Al
0.750000 0.541667 0.625034 Al
0.250000 0.791667 0.625034 Al
0.500000 0.166667 0.625034 Al
0.000000 0.416667 0.625034 Al
0.500000 0.666667 0.625034 Al
0.000000 0.916667 0.625034 Al
0.250000 0.041667 0.625034 Al
0.750000 0.291667 0.625034 Al
0.250000 0.541667 0.625034 Al
0.750000 0.791667 0.625034 Al
0.500000 0.083333 0.646023 Al
0.000000 0.333333 0.646023 Al
0.500000 0.583333 0.646023 Al
0.000000 0.833333 0.646023 Al
0.750000 0.208333 0.646023 Al
0.250000 0.458333 0.646023 Al
0.750000 0.708333 0.646023 Al
0.250000 0.958333 0.646023 Al
0.000000 0.083333 0.646023 Al
0.500000 0.333333 0.646023 Al
0.000000 0.583333 0.646023 Al
0.500000 0.833333 0.646023 Al
0.250000 0.208333 0.646023 Al
0.750000 0.458333 0.646023 Al
0.250000 0.708333 0.646023 Al
0.750000 0.958333 0.646023 Al
0.500000 0.250000 0.667012 Al
0.000000 0.500000 0.667012 Al
0.500000 0.750000 0.667012 Al
0.000000 1.000000 0.667012 Al
0.250000 0.125000 0.667012 Al
0.750000 0.375000 0.667012 Al
0.250000 0.625000 0.667012 Al
0.750000 0.875000 0.667012 Al
0.000000 0.250000 0.667012 Al
0.500000 0.500000 0.667012 Al
0.000000 0.750000 0.667012 Al
0.500000 1.000000 0.667012 Al
0.750000 0.125000 0.667012 Al
0.250000 0.375000 0.667012 Al
0.750000 0.625000 0.667012 Al
0.250000 0.875000 0.667012 Al
0.000000 0.166667 0.688000 Al
0.500000 0.416667 0.688000 Al
0.000000 0.666667 0.688000 Al
0.500000 0.916667 0.688000 Al
0.750000 0.041667 0.688000 Al
0.250000 0.291667 0.688000 Al
0.750000 0.541667 0.688000 Al
0.250000 0.791667 0.688000 Al
0.500000 0.166667 0.688000 Al
0.000000 0.416667 0.688000 Al
0.500000 0.666667 0.688000 Al
0.000000 0.916667 0.688000 Al
0.250000 0.041667 0.688000 Al
0.750000 0.291667 0.688000 Al
0.250000 0.541667 0.688000 Al
0.750000 0.791667 0.688000 Al
0.500000 0.083333 0.708989 Al
0.000000 0.333333 0.708989 Al
0.500000 0.583333 0.708989 Al
0.000000 0.833333 0.708989 Al
0.750000 0.208333 0.708989 Al
0.250000 0.458333 0.708989 Al
0.750000 0.708333 0.708989 Al
0.250000 0.958333 0.708989 Al
0.000000 0.083333 0.708989 Al
0.500000 0.333333 0.708989 Al
0.000000 0.583333 0.708989 Al
0.500000 0.833333 0.708989 Al
0.250000 0.208333 0.708989 Al
0.750000 0.458333 0.708989 Al
0.250000 0.708333 0.708989 Al
0.750000 0.958333 0.708989 Al
0.500000 0.250000 0.729978 Al
0.000000 0.500000 0.729978 Al
0.500000 0.750000 0.729978 Al
0.000000 1.000000 0.729978 Al
0.250000 0.125000 0.729978 Al
0.750000 0.375000 0.729978 Al
0.250000 0.625000 0.729978 Al
0.750000 0.875000 0.729978 Al
0.000000 0.250000 0.729978 Al
0.500000 0.500000 0.729978 Al
0.000000 0.750000 0.729978 Al
0.500000 1.000000 0.729978 Al
0.750000 0.125000 0.729978 Al
0.250000 0.375000 0.729978 Al
0.750000 0.625000 0.729978 Al
0.250000 0.875000 0.729978 Al
0.000000 0.000000 0.013366 In
0.000000 0.333333 0.013366 In
0.000000 0.666667 0.013366 In
0.000000 0.166667 0.040098 In
0.000000 0.500000 0.040098 In
0.000000 0.833333 0.040098 In
0.500000 0.000000 0.040098 In
0.500000 0.333333 0.040098 In
0.500000 0.666667 0.040098 In
0.000000 0.000000 0.066831 In
0.000000 0.333333 0.066831 In
0.000000 0.666667 0.066831 In
0.000000 0.166667 0.093563 In
0.000000 0.500000 0.093563 In
0.000000 0.833333 0.093563 In
0.500000 0.000000 0.093563 In
0.500000 0.333333 0.093563 In
0.500000 0.666667 0.093563 In
0.000000 0.000000 0.120295 In
0.000000 0.333333 0.120295 In
0.000000 0.666667 0.120295 In
0.000000 0.166667 0.147027 In
0.000000 0.500000 0.147027 In
0.000000 0.833333 0.147027 In
0.500000 0.000000 0.147027 In
0.500000 0.333333 0.147027 In
0.500000 0.666667 0.147027 In
0.000000 0.000000 0.173759 In
0.000000 0.333333 0.173759 In
0.000000 0.666667 0.173759 In
0.000000 0.166667 0.200492 In
0.000000 0.500000 0.200492 In
0.000000 0.833333 0.200492 In
0.500000 0.000000 0.200492 In
0.500000 0.333333 0.200492 In
0.500000 0.666667 0.200492 In
0.000000 0.000000 0.227224 In
0.000000 0.333333 0.227224 In
0.000000 0.666667 0.227224 In
0.000000 0.166667 0.253956 In
0.000000 0.500000 0.253956 In
0.000000 0.833333 0.253956 In
0.500000 0.000000 0.253956 In
0.500000 0.333333 0.253956 In
0.500000 0.666667 0.253956 In
0.000000 0.000000 0.280688 In
0.000000 0.333333 0.280688 In
0.000000 0.666667 0.280688 In
0.000000 0.166667 0.307420 In
0.000000 0.500000 0.307420 In
0.000000 0.833333 0.307420 In
0.500000 0.000000 0.307420 In
0.500000 0.333333 0.307420 In
0.500000 0.666667 0.307420 In
0.000000 0.000000 0.334153 In
0.000000 0.333333 0.334153 In
0.000000 0.666667 0.334153 In
0.000000 0.166667 0.360885 In
0.000000 0.500000 0.360885 In
0.000000 0.833333 0.360885 In
0.500000 0.000000 0.360885 In
0.500000 0.333333 0.360885 In
0.500000 0.666667 0.360885 In
0.000000 0.000000 0.387617 In
0.000000 0.333333 0.387617 In
0.000000 0.666667 0.387617 In
0.000000 0.166667 0.414349 In
0.000000 0.500000 0.414349 In
0.000000 0.833333 0.414349 In
0.500000 0.000000 0.414349 In
0.500000 0.333333 0.414349 In
0.500000 0.666667 0.414349 In
0.000000 0.000000 0.441082 In
0.000000 0.333333 0.441082 In
0.000000 0.666667 0.441082 In
0.000000 0.166667 0.467814 In
0.000000 0.500000 0.467814 In
0.000000 0.833333 0.467814 In
0.500000 0.000000 0.467814 In
0.500000 0.333333 0.467814 In
0.500000 0.666667 0.467814 In
0.000000 0.000000 0.494546 In
0.000000 0.333333 0.494546 In
0.000000 0.666667 0.494546 In
0.000000 0.166667 0.521278 In
0.000000 0.500000 0.521278 In
0.000000 0.833333 0.521278 In
0.500000 0.000000 0.521278 In
0.500000 0.333333 0.521278 In
0.500000 0.666667 0.521278 In
0.500000 0.166667 0.013366 Ga
0.500000 0.500000 0.013366 Ga
0.500000 0.833333 0.013366 Ga
0.500000 0.166667 0.066831 Ga
0.500000 0.500000 0.066831 Ga
0.500000 0.833333 0.066831 Ga
0.500000 0.166667 0.120295 Ga
0.500000 0.500000 0.120295 Ga
0.500000 0.833333 0.120295 Ga
0.500000 0.166667 0.173759 Ga
0.500000 0.500000 0.173759 Ga
0.500000 0.833333 0.173759 Ga
0.500000 0.166667 0.227224 Ga
0.500000 0.500000 0.227224 Ga
0.500000 0.833333 0.227224 Ga
0.500000 0.166667 0.280688 Ga
0.500000 0.500000 0.280688 Ga
0.500000 0.833333 0.280688 Ga
0.500000 0.166667 0.334153 Ga
0.500000 0.500000 0.334153 Ga
0.500000 0.833333 0.334153 Ga
0.500000 0.166667 0.387617 Ga
0.500000 0.500000 0.387617 Ga
0.500000 0.833333 0.387617 Ga
0.500000 0.166667 0.441082 Ga
0.500000 0.500000 0.441082 Ga
0.500000 0.833333 0.441082 Ga
0.500000 0.166667 0.494546 Ga
0.500000 0.500000 0.494546 Ga
0.500000 0.833333 0.494546 Ga
0.250000 0.083333 0.026732 As
0.250000 0.416667 0.026732 As
0.250000 0.750000 0.026732 As
0.250000 0.250000 0.000000 As
0.250000 0.583333 0.000000 As
0.250000 0.916667 0.000000 As
0.750000 0.083333 0.000000 As
0.750000 0.416667 0.000000 As
0.750000 0.750000 0.000000 As
0.750000 0.250000 0.026732 As
0.750000 0.583333 0.026732 As
0.750000 0.916667 0.026732 As
0.250000 0.083333 0.080197 As
0.250000 0.416667 0.080197 As
0.250000 0.750000 0.080197 As
0.250000 0.250000 0.053464 As
0.250000 0.583333 0.053464 As
0.250000 0.916667 0.053464 As
0.750000 0.083333 0.053464 As
0.750000 0.416667 0.053464 As
0.750000 0.750000 0.053464 As
0.750000 0.250000 0.080197 As
0.750000 0.583333 0.080197 As
0.750000 0.916667 0.080197 As
0.250000 0.083333 0.133661 As
0.250000 0.416667 0.133661 As
0.250000 0.750000 0.133661 As
0.250000 0.250000 0.106929 As
0.250000 0.583333 0.106929 As
0.250000 0.916667 0.106929 As
0.750000 0.083333 0.106929 As
0.750000 0.416667 0.106929 As
0.750000 0.750000 0.106929 As
0.750000 0.250000 0.133661 As
0.750000 0.583333 0.133661 As
0.750000 0.916667 0.133661 As
0.250000 0.083333 0.187126 As
0.250000 0.416667 0.187126 As
0.250000 0.750000 0.187126 As
0.250000 0.250000 0.160393 As
0.250000 0.583333 0.160393 As
0.250000 0.916667 0.160393 As
0.750000 0.083333 0.160393 As
0.750000 0.416667 0.160393 As
0.750000 0.750000 0.160393 As
0.750000 0.250000 0.187126 As
0.750000 0.583333 0.187126 As
0.750000 0.916667 0.187126 As
0.250000 0.083333 0.240590 As
0.250000 0.416667 0.240590 As
0.250000 0.750000 0.240590 As
0.250000 0.250000 0.213858 As
0.250000 0.583333 0.213858 As
0.250000 0.916667 0.213858 As
0.750000 0.083333 0.213858 As
0.750000 0.416667 0.213858 As
0.750000 0.750000 0.213858 As
0.750000 0.250000 0.240590 As
0.750000 0.583333 0.240590 As
0.750000 0.916667 0.240590 As
0.250000 0.083333 0.294054 As
0.250000 0.416667 0.294054 As
0.250000 0.750000 0.294054 As
0.250000 0.250000 0.267322 As
0.250000 0.583333 0.267322 As
0.250000 0.916667 0.267322 As
0.750000 0.083333 0.267322 As
0.750000 0.416667 0.267322 As
0.750000 0.750000 0.267322 As
0.750000 0.250000 0.294054 As
0.750000 0.583333 0.294054 As
0.750000 0.916667 0.294054 As
0.250000 0.083333 0.347519 As
0.250000 0.416667 0.347519 As
0.250000 0.750000 0.347519 As
0.250000 0.250000 0.320787 As
0.250000 0.583333 0.320787 As
0.250000 0.916667 0.320787 As
0.750000 0.083333 0.320787 As
0.750000 0.416667 0.320787 As
0.750000 0.750000 0.320787 As
0.750000 0.250000 0.347519 As
0.750000 0.583333 0.347519 As
0.750000 0.916667 0.347519 As
0.250000 0.083333 0.400983 As
0.250000 0.416667 0.400983 As
0.250000 0.750000 0.400983 As
0.250000 0.250000 0.374251 As
0.250000 0.583333 0.374251 As
0.250000 0.916667 0.374251 As
0.750000 0.083333 0.374251 As
0.750000 0.416667 0.374251 As
0.750000 0.750000 0.374251 As
0.750000 0.250000 0.400983 As
0.750000 0.583333 0.400983 As
0.750000 0.916667 0.400983 As
0.250000 0.083333 0.454448 As
0.250000 0.416667 0.454448 As
0.250000 0.750000 0.454448 As
0.250000 0.250000 0.427715 As
0.250000 0.583333 0.427715 As
0.250000 0.916667 0.427715 As
0.750000 0.083333 0.427715 As
0.750000 0.416667 0.427715 As
0.750000 0.750000 0.427715 As
0.750000 0.250000 0.454448 As
0.750000 0.583333 0.454448 As
0.750000 0.916667 0.454448 As
0.250000 0.083333 0.507912 As
0.250000 0.416667 0.507912 As
0.250000 0.750000 0.507912 As
0.250000 0.250000 0.481180 As
0.250000 0.583333 0.481180 As
0.250000 0.916667 0.481180 As
0.750000 0.083333 0.481180 As
0.750000 0.416667 0.481180 As
0.750000 0.750000 0.481180 As
0.750000 0.250000 0.507912 As
0.750000 0.583333 0.507912 As
0.750000 0.916667 0.507912 As
