In20 Fe50 Sb20
1.0
6.479400 -0.000000 -0.000000
-0.000000 6.479400 -0.000000
-0.000000 -0.000000 47.874150
In Fe Sb
20 50 20
direct
0.000000 0.000000 0.033836 In
0.500000 0.000000 0.101507 In
0.000000 0.500000 0.101507 In
0.500000 0.500000 0.033836 In
0.000000 0.000000 0.169178 In
0.500000 0.000000 0.236849 In
0.000000 0.500000 0.236849 In
0.500000 0.500000 0.169178 In
0.000000 0.000000 0.304520 In
0.500000 0.000000 0.372191 In
0.000000 0.500000 0.372191 In
0.500000 0.500000 0.304520 In
0.000000 0.000000 0.439863 In
0.500000 0.000000 0.507534 In
0.000000 0.500000 0.507534 In
0.500000 0.500000 0.439863 In
0.000000 0.000000 0.575205 In
0.500000 0.000000 0.642876 In
0.000000 0.500000 0.642876 In
0.500000 0.500000 0.575205 In
0.000000 0.000000 0.718763 Fe
0.400000 0.800000 0.718763 Fe
0.800000 0.600000 0.718763 Fe
0.200000 0.400000 0.718763 Fe
0.600000 0.200000 0.718763 Fe
0.300000 0.100000 0.688830 Fe
0.700000 0.900000 0.688830 Fe
0.100000 0.700000 0.688830 Fe
0.500000 0.500000 0.688830 Fe
0.900000 0.300000 0.688830 Fe
0.000000 0.000000 0.778628 Fe
0.400000 0.800000 0.778628 Fe
0.800000 0.600000 0.778628 Fe
0.200000 0.400000 0.778628 Fe
0.600000 0.200000 0.778628 Fe
0.300000 0.100000 0.748695 Fe
0.700000 0.900000 0.748695 Fe
0.100000 0.700000 0.748695 Fe
0.500000 0.500000 0.748695 Fe
0.900000 0.300000 0.748695 Fe
0.000000 0.000000 0.838493 Fe
0.400000 0.800000 0.838493 Fe
0.800000 0.600000 0.838493 Fe
0.200000 0.400000 0.838493 Fe
0.600000 0.200000 0.838493 Fe
0.300000 0.100000 0.808561 Fe
0.700000 0.900000 0.808561 Fe
0.100000 0.700000 0.808561 Fe
0.500000 0.500000 0.808561 Fe
0.900000 0.300000 0.808561 Fe
0.000000 0.000000 0.898359 Fe
0.400000 0.800000 0.898359 Fe
0.800000 0.600000 0.898359 Fe
0.200000 0.400000 0.898359 Fe
0.600000 0.200000 0.898359 Fe
0.300000 0.100000 0.868426 Fe
0.700000 0.900000 0.868426 Fe
0.100000 0.700000 0.868426 Fe
0.500000 0.500000 0.868426 Fe
0.900000 0.300000 0.868426 Fe
0.000000 0.000000 0.958224 Fe
0.400000 0.800000 0.958224 Fe
0.800000 0.600000 0.958224 Fe
0.200000 0.400000 0.958224 Fe
0.600000 0.200000 0.958224 Fe
0.300000 0.100000 0.928291 Fe
0.700000 0.900000 0.928291 Fe
0.100000 0.700000 0.928291 Fe
0.500000 0.500000 0.928291 Fe
0.900000 0.300000 0.928291 Fe
0.250000 0.250000 0.067671 Sb
0.750000 0.250000 0.000000 Sb
0.250000 0.750000 0.000000 Sb
0.750000 0.750000 0.067671 Sb
0.250000 0.250000 0.203014 Sb
0.750000 0.250000 0.135342 Sb
0.250000 0.750000 0.135342 Sb
0.750000 0.750000 0.203014 Sb
0.250000 0.250000 0.338356 Sb
0.750000 0.250000 0.270685 Sb
0.250000 0.750000 0.270685 Sb
0.750000 0.750000 0.338356 Sb
0.250000 0.250000 0.473698 Sb
0.750000 0.250000 0.406027 Sb
0.250000 0.750000 0.406027 Sb
0.750000 0.750000 0.473698 Sb
0.250000 0.250000 0.609041 Sb
0.750000 0.250000 0.541369 Sb
0.250000 0.750000 0.541369 Sb
0.750000 0.750000 0.609041 Sb
