In50 Fe130 Sb50
1.0
10.244831 -0.000000 -0.000000
-0.000000 10.244831 -0.000000
-0.000000 -0.000000 47.874150
In Fe Sb
50 130 50
direct
0.000000 0.000000 0.033836 In
0.600000 0.200000 0.033836 In
0.200000 0.400000 0.033836 In
0.800000 0.600000 0.033836 In
0.400000 0.800000 0.033836 In
0.300000 0.100000 0.101507 In
0.900000 0.300000 0.101507 In
0.500000 0.500000 0.101507 In
0.100000 0.700000 0.101507 In
0.700000 0.900000 0.101507 In
0.000000 0.000000 0.169178 In
0.600000 0.200000 0.169178 In
0.200000 0.400000 0.169178 In
0.800000 0.600000 0.169178 In
0.400000 0.800000 0.169178 In
0.300000 0.100000 0.236849 In
0.900000 0.300000 0.236849 In
0.500000 0.500000 0.236849 In
0.100000 0.700000 0.236849 In
0.700000 0.900000 0.236849 In
0.000000 0.000000 0.304520 In
0.600000 0.200000 0.304520 In
0.200000 0.400000 0.304520 In
0.800000 0.600000 0.304520 In
0.400000 0.800000 0.304520 In
0.300000 0.100000 0.372191 In
0.900000 0.300000 0.372191 In
0.500000 0.500000 0.372191 In
0.100000 0.700000 0.372191 In
0.700000 0.900000 0.372191 In
0.000000 0.000000 0.439863 In
0.600000 0.200000 0.439863 In
0.200000 0.400000 0.439863 In
0.800000 0.600000 0.439863 In
0.400000 0.800000 0.439863 In
0.300000 0.100000 0.507534 In
0.900000 0.300000 0.507534 In
0.500000 0.500000 0.507534 In
0.100000 0.700000 0.507534 In
0.700000 0.900000 0.507534 In
0.000000 0.000000 0.575205 In
0.600000 0.200000 0.575205 In
0.200000 0.400000 0.575205 In
0.800000 0.600000 0.575205 In
0.400000 0.800000 0.575205 In
0.300000 0.100000 0.642876 In
0.900000 0.300000 0.642876 In
0.500000 0.500000 0.642876 In
0.100000 0.700000 0.642876 In
0.700000 0.900000 0.642876 In
0.000000 0.000000 0.718763 Fe
0.153846 0.230769 0.718763 Fe
0.307692 0.461538 0.718763 Fe
0.461538 0.692308 0.718763 Fe
0.615385 0.923077 0.718763 Fe
0.769231 0.153846 0.718763 Fe
0.923077 0.384615 0.718763 Fe
0.076923 0.615385 0.718763 Fe
0.230769 0.846154 0.718763 Fe
0.384615 0.076923 0.718763 Fe
0.538462 0.307692 0.718763 Fe
0.692308 0.538462 0.718763 Fe
0.846154 0.769231 0.718763 Fe
0.192308 0.038462 0.688830 Fe
0.346154 0.269231 0.688830 Fe
0.500000 0.500000 0.688830 Fe
0.653846 0.730769 0.688830 Fe
0.807692 0.961538 0.688830 Fe
0.961538 0.192308 0.688830 Fe
0.115385 0.423077 0.688830 Fe
0.269231 0.653846 0.688830 Fe
0.423077 0.884615 0.688830 Fe
0.576923 0.115385 0.688830 Fe
0.730769 0.346154 0.688830 Fe
0.884615 0.576923 0.688830 Fe
0.038462 0.807692 0.688830 Fe
0.000000 0.000000 0.778628 Fe
0.153846 0.230769 0.778628 Fe
0.307692 0.461538 0.778628 Fe
0.461538 0.692308 0.778628 Fe
0.615385 0.923077 0.778628 Fe
0.769231 0.153846 0.778628 Fe
0.923077 0.384615 0.778628 Fe
0.076923 0.615385 0.778628 Fe
0.230769 0.846154 0.778628 Fe
0.384615 0.076923 0.778628 Fe
0.538462 0.307692 0.778628 Fe
0.692308 0.538462 0.778628 Fe
0.846154 0.769231 0.778628 Fe
0.192308 0.038462 0.748695 Fe
0.346154 0.269231 0.748695 Fe
0.500000 0.500000 0.748695 Fe
0.653846 0.730769 0.748695 Fe
0.807692 0.961538 0.748695 Fe
0.961538 0.192308 0.748695 Fe
0.115385 0.423077 0.748695 Fe
0.269231 0.653846 0.748695 Fe
0.423077 0.884615 0.748695 Fe
0.576923 0.115385 0.748695 Fe
0.730769 0.346154 0.748695 Fe
0.884615 0.576923 0.748695 Fe
0.038462 0.807692 0.748695 Fe
0.000000 0.000000 0.838493 Fe
0.153846 0.230769 0.838493 Fe
0.307692 0.461538 0.838493 Fe
0.461538 0.692308 0.838493 Fe
0.615385 0.923077 0.838493 Fe
0.769231 0.153846 0.838493 Fe
0.923077 0.384615 0.838493 Fe
0.076923 0.615385 0.838493 Fe
0.230769 0.846154 0.838493 Fe
0.384615 0.076923 0.838493 Fe
0.538462 0.307692 0.838493 Fe
0.692308 0.538462 0.838493 Fe
0.846154 0.769231 0.838493 Fe
0.192308 0.038462 0.808561 Fe
0.346154 0.269231 0.808561 Fe
0.500000 0.500000 0.808561 Fe
0.653846 0.730769 0.808561 Fe
0.807692 0.961538 0.808561 Fe
0.961538 0.192308 0.808561 Fe
0.115385 0.423077 0.808561 Fe
0.269231 0.653846 0.808561 Fe
0.423077 0.884615 0.808561 Fe
0.576923 0.115385 0.808561 Fe
0.730769 0.346154 0.808561 Fe
0.884615 0.576923 0.808561 Fe
0.038462 0.807692 0.808561 Fe
0.000000 0.000000 0.898359 Fe
0.153846 0.230769 0.898359 Fe
0.307692 0.461538 0.898359 Fe
0.461538 0.692308 0.898359 Fe
0.615385 0.923077 0.898359 Fe
0.769231 0.153846 0.898359 Fe
0.923077 0.384615 0.898359 Fe
0.076923 0.615385 0.898359 Fe
0.230769 0.846154 0.898359 Fe
0.384615 0.076923 0.898359 Fe
0.538462 0.307692 0.898359 Fe
0.692308 0.538462 0.898359 Fe
0.846154 0.769231 0.898359 Fe
0.192308 0.038462 0.868426 Fe
0.346154 0.269231 0.868426 Fe
0.500000 0.500000 0.868426 Fe
0.653846 0.730769 0.868426 Fe
0.807692 0.961538 0.868426 Fe
0.961538 0.192308 0.868426 Fe
0.115385 0.423077 0.868426 Fe
0.269231 0.653846 0.868426 Fe
0.423077 0.884615 0.868426 Fe
0.576923 0.115385 0.868426 Fe
0.730769 0.346154 0.868426 Fe
0.884615 0.576923 0.868426 Fe
0.038462 0.807692 0.868426 Fe
0.000000 0.000000 0.958224 Fe
0.153846 0.230769 0.958224 Fe
0.307692 0.461538 0.958224 Fe
0.461538 0.692308 0.958224 Fe
0.615385 0.923077 0.958224 Fe
0.769231 0.153846 0.958224 Fe
0.923077 0.384615 0.958224 Fe
0.076923 0.615385 0.958224 Fe
0.230769 0.846154 0.958224 Fe
0.384615 0.076923 0.958224 Fe
0.538462 0.307692 0.958224 Fe
0.692308 0.538462 0.958224 Fe
0.846154 0.769231 0.958224 Fe
0.192308 0.038462 0.928291 Fe
0.346154 0.269231 0.928291 Fe
0.500000 0.500000 0.928291 Fe
0.653846 0.730769 0.928291 Fe
0.807692 0.961538 0.928291 Fe
0.961538 0.192308 0.928291 Fe
0.115385 0.423077 0.928291 Fe
0.269231 0.653846 0.928291 Fe
0.423077 0.884615 0.928291 Fe
0.576923 0.115385 0.928291 Fe
0.730769 0.346154 0.928291 Fe
0.884615 0.576923 0.928291 Fe
0.038462 0.807692 0.928291 Fe
0.100000 0.200000 0.067671 Sb
0.700000 0.400000 0.067671 Sb
0.300000 0.600000 0.067671 Sb
0.900000 0.800000 0.067671 Sb
0.500000 0.000000 0.067671 Sb
0.400000 0.300000 0.000000 Sb
0.000000 0.500000 0.000000 Sb
0.600000 0.700000 0.000000 Sb
0.200000 0.900000 0.000000 Sb
0.800000 0.100000 0.000000 Sb
0.100000 0.200000 0.203014 Sb
0.700000 0.400000 0.203014 Sb
0.300000 0.600000 0.203014 Sb
0.900000 0.800000 0.203014 Sb
0.500000 0.000000 0.203014 Sb
0.400000 0.300000 0.135342 Sb
0.000000 0.500000 0.135342 Sb
0.600000 0.700000 0.135342 Sb
0.200000 0.900000 0.135342 Sb
0.800000 0.100000 0.135342 Sb
0.100000 0.200000 0.338356 Sb
0.700000 0.400000 0.338356 Sb
0.300000 0.600000 0.338356 Sb
0.900000 0.800000 0.338356 Sb
0.500000 0.000000 0.338356 Sb
0.400000 0.300000 0.270685 Sb
0.000000 0.500000 0.270685 Sb
0.600000 0.700000 0.270685 Sb
0.200000 0.900000 0.270685 Sb
0.800000 0.100000 0.270685 Sb
0.100000 0.200000 0.473698 Sb
0.700000 0.400000 0.473698 Sb
0.300000 0.600000 0.473698 Sb
0.900000 0.800000 0.473698 Sb
0.500000 0.000000 0.473698 Sb
0.400000 0.300000 0.406027 Sb
0.000000 0.500000 0.406027 Sb
0.600000 0.700000 0.406027 Sb
0.200000 0.900000 0.406027 Sb
0.800000 0.100000 0.406027 Sb
0.100000 0.200000 0.609041 Sb
0.700000 0.400000 0.609041 Sb
0.300000 0.600000 0.609041 Sb
0.900000 0.800000 0.609041 Sb
0.500000 0.000000 0.609041 Sb
0.400000 0.300000 0.541369 Sb
0.000000 0.500000 0.541369 Sb
0.600000 0.700000 0.541369 Sb
0.200000 0.900000 0.541369 Sb
0.800000 0.100000 0.541369 Sb
