In20 Fe50 Sb20
1.0
0.000000 14.488379 0.000000
6.479400 -0.000000 -0.000000
-0.000000 -0.000000 -23.731674
In Fe Sb
20 50 20
direct
0.380000 -0.000000 0.061051 In
0.180000 0.500000 1.000000 In
0.880000 0.500000 0.061051 In
0.680000 0.000000 1.000000 In
0.780000 -0.000000 0.183152 In
0.580000 0.500000 0.122102 In
0.280000 0.500000 0.183152 In
0.080000 -0.000000 0.122102 In
0.180000 -0.000000 0.305254 In
0.980000 0.500000 0.244203 In
0.680000 0.500000 0.305254 In
0.480000 -0.000000 0.244203 In
0.580000 -0.000000 0.427356 In
0.380000 0.500000 0.366305 In
0.080000 0.500000 0.427356 In
0.880000 -0.000000 0.366305 In
0.980000 0.000000 0.549457 In
0.780000 0.500000 0.488406 In
0.480000 0.500000 0.549457 In
0.280000 -0.000000 0.488406 In
-0.000000 0.040000 0.699690 Fe
0.800000 0.040000 0.699690 Fe
0.600000 0.040000 0.699690 Fe
0.400000 0.040000 0.699690 Fe
0.200000 0.040000 0.699690 Fe
0.900000 0.340000 0.672686 Fe
0.700000 0.340000 0.672686 Fe
0.500000 0.340000 0.672686 Fe
0.300000 0.340000 0.672686 Fe
0.100000 0.340000 0.672686 Fe
-0.000000 0.440000 0.753699 Fe
0.800000 0.440000 0.753699 Fe
0.600000 0.440000 0.753699 Fe
0.400000 0.440000 0.753699 Fe
0.200000 0.440000 0.753699 Fe
0.900000 0.740000 0.726694 Fe
0.700000 0.740000 0.726694 Fe
0.500000 0.740000 0.726694 Fe
0.300000 0.740000 0.726694 Fe
0.100000 0.740000 0.726694 Fe
-0.000000 0.840000 0.807707 Fe
0.800000 0.840000 0.807707 Fe
0.600000 0.840000 0.807707 Fe
0.400000 0.840000 0.807707 Fe
0.200000 0.840000 0.807707 Fe
0.900000 0.140000 0.780703 Fe
0.700000 0.140000 0.780703 Fe
0.500000 0.140000 0.780703 Fe
0.300000 0.140000 0.780703 Fe
0.100000 0.140000 0.780703 Fe
-0.000000 0.240000 0.861716 Fe
0.800000 0.240000 0.861716 Fe
0.600000 0.240000 0.861716 Fe
0.400000 0.240000 0.861716 Fe
0.200000 0.240000 0.861716 Fe
0.900000 0.540000 0.834712 Fe
0.700000 0.540000 0.834712 Fe
0.500000 0.540000 0.834712 Fe
0.300000 0.540000 0.834712 Fe
0.100000 0.540000 0.834712 Fe
-0.000000 0.640000 0.915724 Fe
0.800000 0.640000 0.915724 Fe
0.600000 0.640000 0.915724 Fe
0.400000 0.640000 0.915724 Fe
0.200000 0.640000 0.915724 Fe
0.900000 0.940000 0.888720 Fe
0.700000 0.940000 0.888720 Fe
0.500000 0.940000 0.888720 Fe
0.300000 0.940000 0.888720 Fe
0.100000 0.940000 0.888720 Fe
0.030000 0.250000 0.030525 Sb
0.230000 0.750000 0.091576 Sb
0.530000 0.750000 0.030525 Sb
0.730000 0.250000 0.091576 Sb
0.430000 0.250000 0.152627 Sb
0.630000 0.750000 0.213678 Sb
0.930000 0.750000 0.152627 Sb
0.130000 0.250000 0.213678 Sb
0.830000 0.250000 0.274729 Sb
0.030000 0.750000 0.335779 Sb
0.330000 0.750000 0.274729 Sb
0.530000 0.250000 0.335779 Sb
0.230000 0.250000 0.396830 Sb
0.430000 0.750000 0.457881 Sb
0.730000 0.750000 0.396830 Sb
0.930000 0.250000 0.457881 Sb
0.630000 0.250000 0.518932 Sb
0.830000 0.750000 0.579983 Sb
0.130000 0.750000 0.518932 Sb
0.330000 0.250000 0.579983 Sb
