Al400 In180 As171 H4
1.0
0.000000 12.772218 0.000000
12.772218 0.000000 -0.000000
-0.000000 0.000000 -179.639235
Al In As H
400 180 171 4
direct
0.000000 0.000000 0.554663 Al
0.700000 0.900000 0.554663 Al
0.400000 0.800000 0.554663 Al
0.100000 0.700000 0.554663 Al
0.800000 0.600000 0.554663 Al
0.500000 0.500000 0.554663 Al
0.200000 0.400000 0.554663 Al
0.900000 0.300000 0.554663 Al
0.600000 0.200000 0.554663 Al
0.300000 0.100000 0.554663 Al
0.900000 0.800000 0.554663 Al
0.600000 0.700000 0.554663 Al
0.300000 0.600000 0.554663 Al
0.000000 0.500000 0.554663 Al
0.700000 0.400000 0.554663 Al
0.400000 0.300000 0.554663 Al
0.100000 0.200000 0.554663 Al
0.800000 0.100000 0.554663 Al
0.500000 0.000000 0.554663 Al
0.200000 0.900000 0.554663 Al
0.750000 0.250000 0.543421 Al
0.450000 0.150000 0.543421 Al
0.150000 0.050000 0.543421 Al
0.250000 0.250000 0.543421 Al
0.950000 0.150000 0.543421 Al
0.650000 0.050000 0.543421 Al
0.850000 0.950000 0.543421 Al
0.550000 0.850000 0.543421 Al
0.250000 0.750000 0.543421 Al
0.950000 0.650000 0.543421 Al
0.650000 0.550000 0.543421 Al
0.350000 0.450000 0.543421 Al
0.050000 0.350000 0.543421 Al
0.050000 0.850000 0.543421 Al
0.750000 0.750000 0.543421 Al
0.450000 0.650000 0.543421 Al
0.150000 0.550000 0.543421 Al
0.850000 0.450000 0.543421 Al
0.550000 0.350000 0.543421 Al
0.350000 0.950000 0.543421 Al
0.000000 0.000000 0.532179 Al
0.700000 0.900000 0.532179 Al
0.400000 0.800000 0.532179 Al
0.100000 0.700000 0.532179 Al
0.800000 0.600000 0.532179 Al
0.500000 0.500000 0.532179 Al
0.200000 0.400000 0.532179 Al
0.900000 0.300000 0.532179 Al
0.600000 0.200000 0.532179 Al
0.300000 0.100000 0.532179 Al
0.900000 0.800000 0.532179 Al
0.600000 0.700000 0.532179 Al
0.300000 0.600000 0.532179 Al
0.000000 0.500000 0.532179 Al
0.700000 0.400000 0.532179 Al
0.400000 0.300000 0.532179 Al
0.100000 0.200000 0.532179 Al
0.800000 0.100000 0.532179 Al
0.500000 0.000000 0.532179 Al
0.200000 0.900000 0.532179 Al
0.750000 0.250000 0.520938 Al
0.450000 0.150000 0.520938 Al
0.150000 0.050000 0.520938 Al
0.250000 0.250000 0.520938 Al
0.950000 0.150000 0.520938 Al
0.650000 0.050000 0.520938 Al
0.850000 0.950000 0.520938 Al
0.550000 0.850000 0.520938 Al
0.250000 0.750000 0.520938 Al
0.950000 0.650000 0.520938 Al
0.650000 0.550000 0.520938 Al
0.350000 0.450000 0.520938 Al
0.050000 0.350000 0.520938 Al
0.050000 0.850000 0.520938 Al
0.750000 0.750000 0.520938 Al
0.450000 0.650000 0.520938 Al
0.150000 0.550000 0.520938 Al
0.850000 0.450000 0.520938 Al
0.550000 0.350000 0.520938 Al
0.350000 0.950000 0.520938 Al
0.000000 0.000000 0.509696 Al
0.700000 0.900000 0.509696 Al
0.400000 0.800000 0.509696 Al
0.100000 0.700000 0.509696 Al
0.800000 0.600000 0.509696 Al
0.500000 0.500000 0.509696 Al
0.200000 0.400000 0.509696 Al
0.900000 0.300000 0.509696 Al
0.600000 0.200000 0.509696 Al
0.300000 0.100000 0.509696 Al
0.900000 0.800000 0.509696 Al
0.600000 0.700000 0.509696 Al
0.300000 0.600000 0.509696 Al
0.000000 0.500000 0.509696 Al
0.700000 0.400000 0.509696 Al
0.400000 0.300000 0.509696 Al
0.100000 0.200000 0.509696 Al
0.800000 0.100000 0.509696 Al
0.500000 0.000000 0.509696 Al
0.200000 0.900000 0.509696 Al
0.650000 0.550000 0.498454 Al
0.350000 0.450000 0.498454 Al
0.050000 0.350000 0.498454 Al
0.750000 0.250000 0.498454 Al
0.450000 0.150000 0.498454 Al
0.150000 0.050000 0.498454 Al
0.150000 0.550000 0.498454 Al
0.850000 0.450000 0.498454 Al
0.550000 0.350000 0.498454 Al
0.250000 0.250000 0.498454 Al
0.950000 0.150000 0.498454 Al
0.650000 0.050000 0.498454 Al
0.850000 0.950000 0.498454 Al
0.550000 0.850000 0.498454 Al
0.250000 0.750000 0.498454 Al
0.950000 0.650000 0.498454 Al
0.050000 0.850000 0.498454 Al
0.750000 0.750000 0.498454 Al
0.450000 0.650000 0.498454 Al
0.350000 0.950000 0.498454 Al
0.000000 0.000000 0.487212 Al
0.800000 0.600000 0.487212 Al
0.500000 0.500000 0.487212 Al
0.200000 0.400000 0.487212 Al
0.900000 0.300000 0.487212 Al
0.600000 0.200000 0.487212 Al
0.300000 0.100000 0.487212 Al
0.300000 0.600000 0.487212 Al
0.000000 0.500000 0.487212 Al
0.700000 0.400000 0.487212 Al
0.400000 0.300000 0.487212 Al
0.100000 0.200000 0.487212 Al
0.800000 0.100000 0.487212 Al
0.500000 0.000000 0.487212 Al
0.700000 0.900000 0.487212 Al
0.400000 0.800000 0.487212 Al
0.100000 0.700000 0.487212 Al
0.900000 0.800000 0.487212 Al
0.600000 0.700000 0.487212 Al
0.200000 0.900000 0.487212 Al
0.650000 0.550000 0.475971 Al
0.350000 0.450000 0.475971 Al
0.050000 0.350000 0.475971 Al
0.750000 0.250000 0.475971 Al
0.450000 0.150000 0.475971 Al
0.150000 0.050000 0.475971 Al
0.150000 0.550000 0.475971 Al
0.850000 0.450000 0.475971 Al
0.550000 0.350000 0.475971 Al
0.250000 0.250000 0.475971 Al
0.950000 0.150000 0.475971 Al
0.650000 0.050000 0.475971 Al
0.850000 0.950000 0.475971 Al
0.550000 0.850000 0.475971 Al
0.250000 0.750000 0.475971 Al
0.950000 0.650000 0.475971 Al
0.050000 0.850000 0.475971 Al
0.750000 0.750000 0.475971 Al
0.450000 0.650000 0.475971 Al
0.350000 0.950000 0.475971 Al
0.000000 0.000000 0.464729 Al
0.800000 0.600000 0.464729 Al
0.500000 0.500000 0.464729 Al
0.200000 0.400000 0.464729 Al
0.900000 0.300000 0.464729 Al
0.600000 0.200000 0.464729 Al
0.300000 0.100000 0.464729 Al
0.300000 0.600000 0.464729 Al
0.000000 0.500000 0.464729 Al
0.700000 0.400000 0.464729 Al
0.400000 0.300000 0.464729 Al
0.100000 0.200000 0.464729 Al
0.800000 0.100000 0.464729 Al
0.500000 0.000000 0.464729 Al
0.700000 0.900000 0.464729 Al
0.400000 0.800000 0.464729 Al
0.100000 0.700000 0.464729 Al
0.900000 0.800000 0.464729 Al
0.600000 0.700000 0.464729 Al
0.200000 0.900000 0.464729 Al
0.650000 0.550000 0.453487 Al
0.350000 0.450000 0.453487 Al
0.050000 0.350000 0.453487 Al
0.750000 0.250000 0.453487 Al
0.450000 0.150000 0.453487 Al
0.150000 0.050000 0.453487 Al
0.150000 0.550000 0.453487 Al
0.850000 0.450000 0.453487 Al
0.550000 0.350000 0.453487 Al
0.250000 0.250000 0.453487 Al
0.950000 0.150000 0.453487 Al
0.650000 0.050000 0.453487 Al
0.850000 0.950000 0.453487 Al
0.550000 0.850000 0.453487 Al
0.250000 0.750000 0.453487 Al
0.950000 0.650000 0.453487 Al
0.050000 0.850000 0.453487 Al
0.750000 0.750000 0.453487 Al
0.450000 0.650000 0.453487 Al
0.350000 0.950000 0.453487 Al
0.000000 0.000000 0.442245 Al
0.800000 0.600000 0.442245 Al
0.500000 0.500000 0.442245 Al
0.200000 0.400000 0.442245 Al
0.900000 0.300000 0.442245 Al
0.600000 0.200000 0.442245 Al
0.300000 0.100000 0.442245 Al
0.300000 0.600000 0.442245 Al
0.000000 0.500000 0.442245 Al
0.700000 0.400000 0.442245 Al
0.400000 0.300000 0.442245 Al
0.100000 0.200000 0.442245 Al
0.800000 0.100000 0.442245 Al
0.500000 0.000000 0.442245 Al
0.700000 0.900000 0.442245 Al
0.400000 0.800000 0.442245 Al
0.100000 0.700000 0.442245 Al
0.900000 0.800000 0.442245 Al
0.600000 0.700000 0.442245 Al
0.200000 0.900000 0.442245 Al
0.650000 0.550000 0.431003 Al
0.350000 0.450000 0.431003 Al
0.050000 0.350000 0.431003 Al
0.750000 0.250000 0.431003 Al
0.450000 0.150000 0.431003 Al
0.150000 0.050000 0.431003 Al
0.150000 0.550000 0.431003 Al
0.850000 0.450000 0.431003 Al
0.550000 0.350000 0.431003 Al
0.250000 0.250000 0.431003 Al
0.950000 0.150000 0.431003 Al
0.650000 0.050000 0.431003 Al
0.850000 0.950000 0.431003 Al
0.550000 0.850000 0.431003 Al
0.250000 0.750000 0.431003 Al
0.950000 0.650000 0.431003 Al
0.050000 0.850000 0.431003 Al
0.750000 0.750000 0.431003 Al
0.450000 0.650000 0.431003 Al
0.350000 0.950000 0.431003 Al
0.000000 0.000000 0.419762 Al
0.800000 0.600000 0.419762 Al
0.500000 0.500000 0.419762 Al
0.200000 0.400000 0.419762 Al
0.900000 0.300000 0.419762 Al
0.600000 0.200000 0.419762 Al
0.300000 0.100000 0.419762 Al
0.300000 0.600000 0.419762 Al
0.000000 0.500000 0.419762 Al
0.700000 0.400000 0.419762 Al
0.400000 0.300000 0.419762 Al
0.100000 0.200000 0.419762 Al
0.800000 0.100000 0.419762 Al
0.500000 0.000000 0.419762 Al
0.700000 0.900000 0.419762 Al
0.400000 0.800000 0.419762 Al
0.100000 0.700000 0.419762 Al
0.900000 0.800000 0.419762 Al
0.600000 0.700000 0.419762 Al
0.200000 0.900000 0.419762 Al
0.650000 0.550000 0.408520 Al
0.350000 0.450000 0.408520 Al
0.050000 0.350000 0.408520 Al
0.750000 0.250000 0.408520 Al
0.450000 0.150000 0.408520 Al
0.150000 0.050000 0.408520 Al
0.150000 0.550000 0.408520 Al
0.850000 0.450000 0.408520 Al
0.550000 0.350000 0.408520 Al
0.250000 0.250000 0.408520 Al
0.950000 0.150000 0.408520 Al
0.650000 0.050000 0.408520 Al
0.850000 0.950000 0.408520 Al
0.550000 0.850000 0.408520 Al
0.250000 0.750000 0.408520 Al
0.950000 0.650000 0.408520 Al
0.050000 0.850000 0.408520 Al
0.750000 0.750000 0.408520 Al
0.450000 0.650000 0.408520 Al
0.350000 0.950000 0.408520 Al
0.000000 0.000000 0.397278 Al
0.800000 0.600000 0.397278 Al
0.500000 0.500000 0.397278 Al
0.200000 0.400000 0.397278 Al
0.900000 0.300000 0.397278 Al
0.600000 0.200000 0.397278 Al
0.300000 0.100000 0.397278 Al
0.300000 0.600000 0.397278 Al
0.000000 0.500000 0.397278 Al
0.700000 0.400000 0.397278 Al
0.400000 0.300000 0.397278 Al
0.100000 0.200000 0.397278 Al
0.800000 0.100000 0.397278 Al
0.500000 0.000000 0.397278 Al
0.700000 0.900000 0.397278 Al
0.400000 0.800000 0.397278 Al
0.100000 0.700000 0.397278 Al
0.900000 0.800000 0.397278 Al
0.600000 0.700000 0.397278 Al
0.200000 0.900000 0.397278 Al
0.650000 0.550000 0.386036 Al
0.350000 0.450000 0.386036 Al
0.050000 0.350000 0.386036 Al
0.750000 0.250000 0.386036 Al
0.450000 0.150000 0.386036 Al
0.150000 0.050000 0.386036 Al
0.150000 0.550000 0.386036 Al
0.850000 0.450000 0.386036 Al
0.550000 0.350000 0.386036 Al
0.250000 0.250000 0.386036 Al
0.950000 0.150000 0.386036 Al
0.650000 0.050000 0.386036 Al
0.850000 0.950000 0.386036 Al
0.550000 0.850000 0.386036 Al
0.250000 0.750000 0.386036 Al
0.950000 0.650000 0.386036 Al
0.050000 0.850000 0.386036 Al
0.750000 0.750000 0.386036 Al
0.450000 0.650000 0.386036 Al
0.350000 0.950000 0.386036 Al
0.000000 0.000000 0.374794 Al
0.800000 0.600000 0.374794 Al
0.500000 0.500000 0.374794 Al
0.200000 0.400000 0.374794 Al
0.900000 0.300000 0.374794 Al
0.600000 0.200000 0.374794 Al
0.300000 0.100000 0.374794 Al
0.300000 0.600000 0.374794 Al
0.000000 0.500000 0.374794 Al
0.700000 0.400000 0.374794 Al
0.400000 0.300000 0.374794 Al
0.100000 0.200000 0.374794 Al
0.800000 0.100000 0.374794 Al
0.500000 0.000000 0.374794 Al
0.700000 0.900000 0.374794 Al
0.400000 0.800000 0.374794 Al
0.100000 0.700000 0.374794 Al
0.900000 0.800000 0.374794 Al
0.600000 0.700000 0.374794 Al
0.200000 0.900000 0.374794 Al
0.650000 0.550000 0.363553 Al
0.350000 0.450000 0.363553 Al
0.050000 0.350000 0.363553 Al
0.750000 0.250000 0.363553 Al
0.450000 0.150000 0.363553 Al
0.150000 0.050000 0.363553 Al
0.150000 0.550000 0.363553 Al
0.850000 0.450000 0.363553 Al
0.550000 0.350000 0.363553 Al
0.250000 0.250000 0.363553 Al
0.950000 0.150000 0.363553 Al
0.650000 0.050000 0.363553 Al
0.850000 0.950000 0.363553 Al
0.550000 0.850000 0.363553 Al
0.250000 0.750000 0.363553 Al
0.950000 0.650000 0.363553 Al
0.050000 0.850000 0.363553 Al
0.750000 0.750000 0.363553 Al
0.450000 0.650000 0.363553 Al
0.350000 0.950000 0.363553 Al
0.000000 0.000000 0.352311 Al
0.800000 0.600000 0.352311 Al
0.500000 0.500000 0.352311 Al
0.200000 0.400000 0.352311 Al
0.900000 0.300000 0.352311 Al
0.600000 0.200000 0.352311 Al
0.300000 0.100000 0.352311 Al
0.300000 0.600000 0.352311 Al
0.000000 0.500000 0.352311 Al
0.700000 0.400000 0.352311 Al
0.400000 0.300000 0.352311 Al
0.100000 0.200000 0.352311 Al
0.800000 0.100000 0.352311 Al
0.500000 0.000000 0.352311 Al
0.700000 0.900000 0.352311 Al
0.400000 0.800000 0.352311 Al
0.100000 0.700000 0.352311 Al
0.900000 0.800000 0.352311 Al
0.600000 0.700000 0.352311 Al
0.200000 0.900000 0.352311 Al
0.650000 0.550000 0.341069 Al
0.350000 0.450000 0.341069 Al
0.050000 0.350000 0.341069 Al
0.750000 0.250000 0.341069 Al
0.450000 0.150000 0.341069 Al
0.150000 0.050000 0.341069 Al
0.150000 0.550000 0.341069 Al
0.850000 0.450000 0.341069 Al
0.550000 0.350000 0.341069 Al
0.250000 0.250000 0.341069 Al
0.950000 0.150000 0.341069 Al
0.650000 0.050000 0.341069 Al
0.850000 0.950000 0.341069 Al
0.550000 0.850000 0.341069 Al
0.250000 0.750000 0.341069 Al
0.950000 0.650000 0.341069 Al
0.050000 0.850000 0.341069 Al
0.750000 0.750000 0.341069 Al
0.450000 0.650000 0.341069 Al
0.350000 0.950000 0.341069 Al
0.000000 0.000000 0.328822 In
0.666667 0.333333 0.328822 In
0.333333 0.000000 0.328822 In
0.000000 0.333333 0.328822 In
0.333333 0.333333 0.328822 In
0.333333 0.666667 0.328822 In
0.666667 0.666667 0.328822 In
0.000000 0.666667 0.328822 In
0.666667 1.000000 0.328822 In
0.833333 0.166667 0.311960 In
0.500000 0.500000 0.311960 In
0.166667 0.166667 0.311960 In
0.833333 0.500000 0.311960 In
0.166667 0.500000 0.311960 In
0.500000 0.166667 0.311960 In
0.166667 0.833333 0.311960 In
0.500000 0.833333 0.311960 In
0.833333 0.833333 0.311960 In
0.000000 0.000000 0.295097 In
0.666667 0.333333 0.295097 In
0.333333 0.000000 0.295097 In
0.000000 0.333333 0.295097 In
0.333333 0.333333 0.295097 In
0.333333 0.666667 0.295097 In
0.666667 0.666667 0.295097 In
0.000000 0.666667 0.295097 In
0.666667 1.000000 0.295097 In
0.833333 0.166667 0.278234 In
0.500000 0.500000 0.278234 In
0.166667 0.166667 0.278234 In
0.833333 0.500000 0.278234 In
0.166667 0.500000 0.278234 In
0.500000 0.166667 0.278234 In
0.166667 0.833333 0.278234 In
0.500000 0.833333 0.278234 In
0.833333 0.833333 0.278234 In
0.000000 0.000000 0.261372 In
0.666667 0.333333 0.261372 In
0.333333 0.000000 0.261372 In
0.000000 0.333333 0.261372 In
0.333333 0.333333 0.261372 In
0.333333 0.666667 0.261372 In
0.666667 0.666667 0.261372 In
0.000000 0.666667 0.261372 In
0.666667 1.000000 0.261372 In
0.833333 0.166667 0.244509 In
0.500000 0.500000 0.244509 In
0.166667 0.166667 0.244509 In
0.833333 0.500000 0.244509 In
0.166667 0.500000 0.244509 In
0.500000 0.166667 0.244509 In
0.166667 0.833333 0.244509 In
0.500000 0.833333 0.244509 In
0.833333 0.833333 0.244509 In
0.000000 0.000000 0.227646 In
0.666667 0.333333 0.227646 In
0.333333 0.000000 0.227646 In
0.000000 0.333333 0.227646 In
0.333333 0.333333 0.227646 In
0.333333 0.666667 0.227646 In
0.666667 0.666667 0.227646 In
0.000000 0.666667 0.227646 In
0.666667 1.000000 0.227646 In
0.833333 0.166667 0.210784 In
0.500000 0.500000 0.210784 In
0.166667 0.166667 0.210784 In
0.833333 0.500000 0.210784 In
0.166667 0.500000 0.210784 In
0.500000 0.166667 0.210784 In
0.166667 0.833333 0.210784 In
0.500000 0.833333 0.210784 In
0.833333 0.833333 0.210784 In
0.000000 0.000000 0.193921 In
0.666667 0.333333 0.193921 In
0.333333 0.000000 0.193921 In
0.000000 0.333333 0.193921 In
0.333333 0.333333 0.193921 In
0.333333 0.666667 0.193921 In
0.666667 0.666667 0.193921 In
0.000000 0.666667 0.193921 In
0.666667 1.000000 0.193921 In
0.833333 0.166667 0.177058 In
0.500000 0.500000 0.177058 In
0.166667 0.166667 0.177058 In
0.833333 0.500000 0.177058 In
0.166667 0.500000 0.177058 In
0.500000 0.166667 0.177058 In
0.166667 0.833333 0.177058 In
0.500000 0.833333 0.177058 In
0.833333 0.833333 0.177058 In
0.000000 0.000000 0.160196 In
0.666667 0.333333 0.160196 In
0.333333 0.000000 0.160196 In
0.000000 0.333333 0.160196 In
0.333333 0.333333 0.160196 In
0.333333 0.666667 0.160196 In
0.666667 0.666667 0.160196 In
0.000000 0.666667 0.160196 In
0.666667 1.000000 0.160196 In
0.833333 0.166667 0.143333 In
0.500000 0.500000 0.143333 In
0.166667 0.166667 0.143333 In
0.833333 0.500000 0.143333 In
0.166667 0.500000 0.143333 In
0.500000 0.166667 0.143333 In
0.166667 0.833333 0.143333 In
0.500000 0.833333 0.143333 In
0.833333 0.833333 0.143333 In
0.000000 0.000000 0.126470 In
0.666667 0.333333 0.126470 In
0.333333 0.000000 0.126470 In
0.000000 0.333333 0.126470 In
0.333333 0.333333 0.126470 In
0.333333 0.666667 0.126470 In
0.666667 0.666667 0.126470 In
0.000000 0.666667 0.126470 In
0.666667 1.000000 0.126470 In
0.833333 0.166667 0.109607 In
0.500000 0.500000 0.109607 In
0.166667 0.166667 0.109607 In
0.833333 0.500000 0.109607 In
0.166667 0.500000 0.109607 In
0.500000 0.166667 0.109607 In
0.166667 0.833333 0.109607 In
0.500000 0.833333 0.109607 In
0.833333 0.833333 0.109607 In
0.000000 0.000000 0.092745 In
0.666667 0.333333 0.092745 In
0.333333 0.000000 0.092745 In
0.000000 0.333333 0.092745 In
0.333333 0.333333 0.092745 In
0.333333 0.666667 0.092745 In
0.666667 0.666667 0.092745 In
0.000000 0.666667 0.092745 In
0.666667 1.000000 0.092745 In
0.833333 0.166667 0.075882 In
0.500000 0.500000 0.075882 In
0.166667 0.166667 0.075882 In
0.833333 0.500000 0.075882 In
0.166667 0.500000 0.075882 In
0.500000 0.166667 0.075882 In
0.166667 0.833333 0.075882 In
0.500000 0.833333 0.075882 In
0.833333 0.833333 0.075882 In
0.000000 0.000000 0.059019 In
0.666667 0.333333 0.059019 In
0.333333 0.000000 0.059019 In
0.000000 0.333333 0.059019 In
0.333333 0.333333 0.059019 In
0.333333 0.666667 0.059019 In
0.666667 0.666667 0.059019 In
0.000000 0.666667 0.059019 In
0.666667 1.000000 0.059019 In
0.833333 0.166667 0.042157 In
0.500000 0.500000 0.042157 In
0.166667 0.166667 0.042157 In
0.833333 0.500000 0.042157 In
0.166667 0.500000 0.042157 In
0.500000 0.166667 0.042157 In
0.166667 0.833333 0.042157 In
0.500000 0.833333 0.042157 In
0.833333 0.833333 0.042157 In
0.000000 0.000000 0.025294 In
0.666667 0.333333 0.025294 In
0.333333 0.000000 0.025294 In
0.000000 0.333333 0.025294 In
0.333333 0.333333 0.025294 In
0.333333 0.666667 0.025294 In
0.666667 0.666667 0.025294 In
0.000000 0.666667 0.025294 In
0.666667 1.000000 0.025294 In
0.833333 0.166667 0.008431 In
0.500000 0.500000 0.008431 In
0.166667 0.166667 0.008431 In
0.833333 0.500000 0.008431 In
0.166667 0.500000 0.008431 In
0.500000 0.166667 0.008431 In
0.166667 0.833333 0.008431 In
0.500000 0.833333 0.008431 In
0.833333 0.833333 0.008431 In
0.666667 0.166667 0.320391 As
0.333333 0.500000 0.320391 As
0.000000 0.166667 0.320391 As
0.666667 0.500000 0.320391 As
0.000000 0.500000 0.320391 As
0.333333 0.166667 0.320391 As
0.000000 0.833333 0.320391 As
0.333333 0.833333 0.320391 As
0.666667 0.833333 0.320391 As
0.833333 0.000000 0.303528 As
0.500000 0.333333 0.303528 As
0.833333 0.333333 0.303528 As
0.166667 0.333333 0.303528 As
0.500000 0.000000 0.303528 As
0.166667 0.666667 0.303528 As
0.500000 0.666667 0.303528 As
0.166667 1.000000 0.303528 As
0.833333 0.666667 0.303528 As
0.666667 0.166667 0.286666 As
0.333333 0.500000 0.286666 As
0.000000 0.166667 0.286666 As
0.666667 0.500000 0.286666 As
0.000000 0.500000 0.286666 As
0.333333 0.166667 0.286666 As
0.000000 0.833333 0.286666 As
0.333333 0.833333 0.286666 As
0.666667 0.833333 0.286666 As
0.833333 0.000000 0.269803 As
0.500000 0.333333 0.269803 As
0.833333 0.333333 0.269803 As
0.166667 0.333333 0.269803 As
0.500000 0.000000 0.269803 As
0.166667 0.666667 0.269803 As
0.500000 0.666667 0.269803 As
0.166667 1.000000 0.269803 As
0.833333 0.666667 0.269803 As
0.666667 0.166667 0.252940 As
0.333333 0.500000 0.252940 As
0.000000 0.166667 0.252940 As
0.666667 0.500000 0.252940 As
0.000000 0.500000 0.252940 As
0.333333 0.166667 0.252940 As
0.000000 0.833333 0.252940 As
0.333333 0.833333 0.252940 As
0.666667 0.833333 0.252940 As
0.833333 0.000000 0.236078 As
0.500000 0.333333 0.236078 As
0.833333 0.333333 0.236078 As
0.166667 0.333333 0.236078 As
0.500000 0.000000 0.236078 As
0.166667 0.666667 0.236078 As
0.500000 0.666667 0.236078 As
0.166667 1.000000 0.236078 As
0.833333 0.666667 0.236078 As
0.666667 0.166667 0.219215 As
0.333333 0.500000 0.219215 As
0.000000 0.166667 0.219215 As
0.666667 0.500000 0.219215 As
0.000000 0.500000 0.219215 As
0.333333 0.166667 0.219215 As
0.000000 0.833333 0.219215 As
0.333333 0.833333 0.219215 As
0.666667 0.833333 0.219215 As
0.833333 0.000000 0.202352 As
0.500000 0.333333 0.202352 As
0.833333 0.333333 0.202352 As
0.166667 0.333333 0.202352 As
0.500000 0.000000 0.202352 As
0.166667 0.666667 0.202352 As
0.500000 0.666667 0.202352 As
0.166667 1.000000 0.202352 As
0.833333 0.666667 0.202352 As
0.666667 0.166667 0.185490 As
0.333333 0.500000 0.185490 As
0.000000 0.166667 0.185490 As
0.666667 0.500000 0.185490 As
0.000000 0.500000 0.185490 As
0.333333 0.166667 0.185490 As
0.000000 0.833333 0.185490 As
0.333333 0.833333 0.185490 As
0.666667 0.833333 0.185490 As
0.833333 0.000000 0.168627 As
0.500000 0.333333 0.168627 As
0.833333 0.333333 0.168627 As
0.166667 0.333333 0.168627 As
0.500000 0.000000 0.168627 As
0.166667 0.666667 0.168627 As
0.500000 0.666667 0.168627 As
0.166667 1.000000 0.168627 As
0.833333 0.666667 0.168627 As
0.666667 0.166667 0.151764 As
0.333333 0.500000 0.151764 As
0.000000 0.166667 0.151764 As
0.666667 0.500000 0.151764 As
0.000000 0.500000 0.151764 As
0.333333 0.166667 0.151764 As
0.000000 0.833333 0.151764 As
0.333333 0.833333 0.151764 As
0.666667 0.833333 0.151764 As
0.833333 0.000000 0.134901 As
0.500000 0.333333 0.134901 As
0.833333 0.333333 0.134901 As
0.166667 0.333333 0.134901 As
0.500000 0.000000 0.134901 As
0.166667 0.666667 0.134901 As
0.500000 0.666667 0.134901 As
0.166667 1.000000 0.134901 As
0.833333 0.666667 0.134901 As
0.666667 0.166667 0.118039 As
0.333333 0.500000 0.118039 As
0.000000 0.166667 0.118039 As
0.666667 0.500000 0.118039 As
0.000000 0.500000 0.118039 As
0.333333 0.166667 0.118039 As
0.000000 0.833333 0.118039 As
0.333333 0.833333 0.118039 As
0.666667 0.833333 0.118039 As
0.833333 0.000000 0.101176 As
0.500000 0.333333 0.101176 As
0.833333 0.333333 0.101176 As
0.166667 0.333333 0.101176 As
0.500000 0.000000 0.101176 As
0.166667 0.666667 0.101176 As
0.500000 0.666667 0.101176 As
0.166667 1.000000 0.101176 As
0.833333 0.666667 0.101176 As
0.666667 0.166667 0.084313 As
0.333333 0.500000 0.084313 As
0.000000 0.166667 0.084313 As
0.666667 0.500000 0.084313 As
0.000000 0.500000 0.084313 As
0.333333 0.166667 0.084313 As
0.000000 0.833333 0.084313 As
0.333333 0.833333 0.084313 As
0.666667 0.833333 0.084313 As
0.833333 0.000000 0.067451 As
0.500000 0.333333 0.067451 As
0.833333 0.333333 0.067451 As
0.166667 0.333333 0.067451 As
0.500000 0.000000 0.067451 As
0.166667 0.666667 0.067451 As
0.500000 0.666667 0.067451 As
0.166667 1.000000 0.067451 As
0.833333 0.666667 0.067451 As
0.666667 0.166667 0.050588 As
0.333333 0.500000 0.050588 As
0.000000 0.166667 0.050588 As
0.666667 0.500000 0.050588 As
0.000000 0.500000 0.050588 As
0.333333 0.166667 0.050588 As
0.000000 0.833333 0.050588 As
0.333333 0.833333 0.050588 As
0.666667 0.833333 0.050588 As
0.833333 0.000000 0.033725 As
0.500000 0.333333 0.033725 As
0.833333 0.333333 0.033725 As
0.166667 0.333333 0.033725 As
0.500000 0.000000 0.033725 As
0.166667 0.666667 0.033725 As
0.500000 0.666667 0.033725 As
0.166667 1.000000 0.033725 As
0.833333 0.666667 0.033725 As
0.666667 0.166667 0.016863 As
0.333333 0.500000 0.016863 As
0.000000 0.166667 0.016863 As
0.666667 0.500000 0.016863 As
0.000000 0.500000 0.016863 As
0.333333 0.166667 0.016863 As
0.000000 0.833333 0.016863 As
0.333333 0.833333 0.016863 As
0.666667 0.833333 0.016863 As
0.833333 0.166667 0.999982 H
0.500000 0.500000 0.999982 H
0.166667 0.166667 0.999982 H
0.833333 0.500000 0.999982 H
